p cnf 675 1841
-73 -4 -7 0
-73 4 7 0
73 -4 7 0
73 4 -7 0
-74 -73 -13 0
-74 73 13 0
74 -73 13 0
74 73 -13 0
-75 -74 -38 0
-75 74 38 0
75 -74 38 0
75 74 -38 0
-76 -75 -39 0
-76 75 39 0
76 -75 39 0
76 75 -39 0
-77 -76 -55 0
-77 76 55 0
77 -76 55 0
77 76 -55 0
-77 0
-78 -5 -8 0
-78 5 8 0
78 -5 8 0
78 5 -8 0
-79 -78 -14 0
-79 78 14 0
79 -78 14 0
79 78 -14 0
-80 -79 -39 0
-80 79 39 0
80 -79 39 0
80 79 -39 0
-81 -80 -40 0
-81 80 40 0
81 -80 40 0
81 80 -40 0
-82 -81 -56 0
-82 81 56 0
82 -81 56 0
82 81 -56 0
-82 0
-83 -6 -9 0
-83 6 9 0
83 -6 9 0
83 6 -9 0
-84 -83 -15 0
-84 83 15 0
84 -83 15 0
84 83 -15 0
-85 -84 -40 0
-85 84 40 0
85 -84 40 0
85 84 -40 0
-86 -85 -41 0
-86 85 41 0
86 -85 41 0
86 85 -41 0
-87 -86 -57 0
-87 86 57 0
87 -86 57 0
87 86 -57 0
-87 0
-88 -1 -10 0
-88 1 10 0
88 -1 10 0
88 1 -10 0
-89 -88 -16 0
-89 88 16 0
89 -88 16 0
89 88 -16 0
-90 -89 -41 0
-90 89 41 0
90 -89 41 0
90 89 -41 0
-91 -90 -42 0
-91 90 42 0
91 -90 42 0
91 90 -42 0
-92 -91 -58 0
-92 91 58 0
92 -91 58 0
92 91 -58 0
-92 0
-93 -2 -11 0
-93 2 11 0
93 -2 11 0
93 2 -11 0
-94 -93 -17 0
-94 93 17 0
94 -93 17 0
94 93 -17 0
-95 -94 -37 0
-95 94 37 0
95 -94 37 0
95 94 -37 0
-96 -95 -42 0
-96 95 42 0
96 -95 42 0
96 95 -42 0
-97 -96 -59 0
-97 96 59 0
97 -96 59 0
97 96 -59 0
-97 0
-98 -3 -12 0
-98 3 12 0
98 -3 12 0
98 3 -12 0
-99 -98 -18 0
-99 98 18 0
99 -98 18 0
99 98 -18 0
-100 -99 -37 0
-100 99 37 0
100 -99 37 0
100 99 -37 0
-101 -100 -38 0
-101 100 38 0
101 -100 38 0
101 100 -38 0
-102 -101 -60 0
-102 101 60 0
102 -101 60 0
102 101 -60 0
-102 0
-103 -10 -13 0
-103 10 13 0
103 -10 13 0
103 10 -13 0
-104 -103 -19 0
-104 103 19 0
104 -103 19 0
104 103 -19 0
-105 -104 -44 0
-105 104 44 0
105 -104 44 0
105 104 -44 0
-106 -105 -45 0
-106 105 45 0
106 -105 45 0
106 105 -45 0
-107 -106 -61 0
-107 106 61 0
107 -106 61 0
107 106 -61 0
-107 0
-108 -11 -14 0
-108 11 14 0
108 -11 14 0
108 11 -14 0
-109 -108 -20 0
-109 108 20 0
109 -108 20 0
109 108 -20 0
-110 -109 -45 0
-110 109 45 0
110 -109 45 0
110 109 -45 0
-111 -110 -46 0
-111 110 46 0
111 -110 46 0
111 110 -46 0
-112 -111 -62 0
-112 111 62 0
112 -111 62 0
112 111 -62 0
-112 0
-113 -12 -15 0
-113 12 15 0
113 -12 15 0
113 12 -15 0
-114 -113 -21 0
-114 113 21 0
114 -113 21 0
114 113 -21 0
-115 -114 -46 0
-115 114 46 0
115 -114 46 0
115 114 -46 0
-116 -115 -47 0
-116 115 47 0
116 -115 47 0
116 115 -47 0
-117 -116 -63 0
-117 116 63 0
117 -116 63 0
117 116 -63 0
-117 0
-118 -7 -16 0
-118 7 16 0
118 -7 16 0
118 7 -16 0
-119 -118 -22 0
-119 118 22 0
119 -118 22 0
119 118 -22 0
-120 -119 -47 0
-120 119 47 0
120 -119 47 0
120 119 -47 0
-121 -120 -48 0
-121 120 48 0
121 -120 48 0
121 120 -48 0
-122 -121 -64 0
-122 121 64 0
122 -121 64 0
122 121 -64 0
-122 0
-123 -8 -17 0
-123 8 17 0
123 -8 17 0
123 8 -17 0
-124 -123 -23 0
-124 123 23 0
124 -123 23 0
124 123 -23 0
-125 -124 -43 0
-125 124 43 0
125 -124 43 0
125 124 -43 0
-126 -125 -48 0
-126 125 48 0
126 -125 48 0
126 125 -48 0
-127 -126 -65 0
-127 126 65 0
127 -126 65 0
127 126 -65 0
-127 0
-128 -9 -18 0
-128 9 18 0
128 -9 18 0
128 9 -18 0
-129 -128 -24 0
-129 128 24 0
129 -128 24 0
129 128 -24 0
-130 -129 -43 0
-130 129 43 0
130 -129 43 0
130 129 -43 0
-131 -130 -44 0
-131 130 44 0
131 -130 44 0
131 130 -44 0
-132 -131 -66 0
-132 131 66 0
132 -131 66 0
132 131 -66 0
-132 0
-133 -16 -19 0
-133 16 19 0
133 -16 19 0
133 16 -19 0
-134 -133 -25 0
-134 133 25 0
134 -133 25 0
134 133 -25 0
-135 -134 -50 0
-135 134 50 0
135 -134 50 0
135 134 -50 0
-136 -135 -51 0
-136 135 51 0
136 -135 51 0
136 135 -51 0
-137 -136 -67 0
-137 136 67 0
137 -136 67 0
137 136 -67 0
-137 0
-138 -17 -20 0
-138 17 20 0
138 -17 20 0
138 17 -20 0
-139 -138 -26 0
-139 138 26 0
139 -138 26 0
139 138 -26 0
-140 -139 -51 0
-140 139 51 0
140 -139 51 0
140 139 -51 0
-141 -140 -52 0
-141 140 52 0
141 -140 52 0
141 140 -52 0
-142 -141 -68 0
-142 141 68 0
142 -141 68 0
142 141 -68 0
-142 0
-143 -18 -21 0
-143 18 21 0
143 -18 21 0
143 18 -21 0
-144 -143 -27 0
-144 143 27 0
144 -143 27 0
144 143 -27 0
-145 -144 -52 0
-145 144 52 0
145 -144 52 0
145 144 -52 0
-146 -145 -53 0
-146 145 53 0
146 -145 53 0
146 145 -53 0
-147 -146 -69 0
-147 146 69 0
147 -146 69 0
147 146 -69 0
-147 0
-148 -13 -22 0
-148 13 22 0
148 -13 22 0
148 13 -22 0
-149 -148 -28 0
-149 148 28 0
149 -148 28 0
149 148 -28 0
-150 -149 -53 0
-150 149 53 0
150 -149 53 0
150 149 -53 0
-151 -150 -54 0
-151 150 54 0
151 -150 54 0
151 150 -54 0
-152 -151 -70 0
-152 151 70 0
152 -151 70 0
152 151 -70 0
-152 0
-153 -14 -23 0
-153 14 23 0
153 -14 23 0
153 14 -23 0
-154 -153 -29 0
-154 153 29 0
154 -153 29 0
154 153 -29 0
-155 -154 -49 0
-155 154 49 0
155 -154 49 0
155 154 -49 0
-156 -155 -54 0
-156 155 54 0
156 -155 54 0
156 155 -54 0
-157 -156 -71 0
-157 156 71 0
157 -156 71 0
157 156 -71 0
-157 0
-158 -15 -24 0
-158 15 24 0
158 -15 24 0
158 15 -24 0
-159 -158 -30 0
-159 158 30 0
159 -158 30 0
159 158 -30 0
-160 -159 -49 0
-160 159 49 0
160 -159 49 0
160 159 -49 0
-161 -160 -50 0
-161 160 50 0
161 -160 50 0
161 160 -50 0
-162 -161 -72 0
-162 161 72 0
162 -161 72 0
162 161 -72 0
-162 0
-163 -22 -25 0
-163 22 25 0
163 -22 25 0
163 22 -25 0
-164 -163 -31 0
-164 163 31 0
164 -163 31 0
164 163 -31 0
-165 -164 -37 0
-165 164 37 0
165 -164 37 0
165 164 -37 0
-166 -165 -56 0
-166 165 56 0
166 -165 56 0
166 165 -56 0
-167 -166 -57 0
-167 166 57 0
167 -166 57 0
167 166 -57 0
-167 0
-168 -23 -26 0
-168 23 26 0
168 -23 26 0
168 23 -26 0
-169 -168 -32 0
-169 168 32 0
169 -168 32 0
169 168 -32 0
-170 -169 -38 0
-170 169 38 0
170 -169 38 0
170 169 -38 0
-171 -170 -57 0
-171 170 57 0
171 -170 57 0
171 170 -57 0
-172 -171 -58 0
-172 171 58 0
172 -171 58 0
172 171 -58 0
-172 0
-173 -24 -27 0
-173 24 27 0
173 -24 27 0
173 24 -27 0
-174 -173 -33 0
-174 173 33 0
174 -173 33 0
174 173 -33 0
-175 -174 -39 0
-175 174 39 0
175 -174 39 0
175 174 -39 0
-176 -175 -58 0
-176 175 58 0
176 -175 58 0
176 175 -58 0
-177 -176 -59 0
-177 176 59 0
177 -176 59 0
177 176 -59 0
-177 0
-178 -19 -28 0
-178 19 28 0
178 -19 28 0
178 19 -28 0
-179 -178 -34 0
-179 178 34 0
179 -178 34 0
179 178 -34 0
-180 -179 -40 0
-180 179 40 0
180 -179 40 0
180 179 -40 0
-181 -180 -59 0
-181 180 59 0
181 -180 59 0
181 180 -59 0
-182 -181 -60 0
-182 181 60 0
182 -181 60 0
182 181 -60 0
-182 0
-183 -20 -29 0
-183 20 29 0
183 -20 29 0
183 20 -29 0
-184 -183 -35 0
-184 183 35 0
184 -183 35 0
184 183 -35 0
-185 -184 -41 0
-185 184 41 0
185 -184 41 0
185 184 -41 0
-186 -185 -55 0
-186 185 55 0
186 -185 55 0
186 185 -55 0
-187 -186 -60 0
-187 186 60 0
187 -186 60 0
187 186 -60 0
-187 0
-188 -21 -30 0
-188 21 30 0
188 -21 30 0
188 21 -30 0
-189 -188 -36 0
-189 188 36 0
189 -188 36 0
189 188 -36 0
-190 -189 -42 0
-190 189 42 0
190 -189 42 0
190 189 -42 0
-191 -190 -55 0
-191 190 55 0
191 -190 55 0
191 190 -55 0
-192 -191 -56 0
-192 191 56 0
192 -191 56 0
192 191 -56 0
-192 0
-193 -1 -28 0
-193 1 28 0
193 -1 28 0
193 1 -28 0
-194 -193 -31 0
-194 193 31 0
194 -193 31 0
194 193 -31 0
-195 -194 -43 0
-195 194 43 0
195 -194 43 0
195 194 -43 0
-196 -195 -62 0
-196 195 62 0
196 -195 62 0
196 195 -62 0
-197 -196 -63 0
-197 196 63 0
197 -196 63 0
197 196 -63 0
-197 0
-198 -2 -29 0
-198 2 29 0
198 -2 29 0
198 2 -29 0
-199 -198 -32 0
-199 198 32 0
199 -198 32 0
199 198 -32 0
-200 -199 -44 0
-200 199 44 0
200 -199 44 0
200 199 -44 0
-201 -200 -63 0
-201 200 63 0
201 -200 63 0
201 200 -63 0
-202 -201 -64 0
-202 201 64 0
202 -201 64 0
202 201 -64 0
-202 0
-203 -3 -30 0
-203 3 30 0
203 -3 30 0
203 3 -30 0
-204 -203 -33 0
-204 203 33 0
204 -203 33 0
204 203 -33 0
-205 -204 -45 0
-205 204 45 0
205 -204 45 0
205 204 -45 0
-206 -205 -64 0
-206 205 64 0
206 -205 64 0
206 205 -64 0
-207 -206 -65 0
-207 206 65 0
207 -206 65 0
207 206 -65 0
-207 0
-208 -4 -25 0
-208 4 25 0
208 -4 25 0
208 4 -25 0
-209 -208 -34 0
-209 208 34 0
209 -208 34 0
209 208 -34 0
-210 -209 -46 0
-210 209 46 0
210 -209 46 0
210 209 -46 0
-211 -210 -65 0
-211 210 65 0
211 -210 65 0
211 210 -65 0
-212 -211 -66 0
-212 211 66 0
212 -211 66 0
212 211 -66 0
-212 0
-213 -5 -26 0
-213 5 26 0
213 -5 26 0
213 5 -26 0
-214 -213 -35 0
-214 213 35 0
214 -213 35 0
214 213 -35 0
-215 -214 -47 0
-215 214 47 0
215 -214 47 0
215 214 -47 0
-216 -215 -61 0
-216 215 61 0
216 -215 61 0
216 215 -61 0
-217 -216 -66 0
-217 216 66 0
217 -216 66 0
217 216 -66 0
-217 0
-218 -6 -27 0
-218 6 27 0
218 -6 27 0
218 6 -27 0
-219 -218 -36 0
-219 218 36 0
219 -218 36 0
219 218 -36 0
-220 -219 -48 0
-220 219 48 0
220 -219 48 0
220 219 -48 0
-221 -220 -61 0
-221 220 61 0
221 -220 61 0
221 220 -61 0
-222 -221 -62 0
-222 221 62 0
222 -221 62 0
222 221 -62 0
-222 0
-223 -1 -7 0
-223 1 7 0
223 -1 7 0
223 1 -7 0
-224 -223 -34 0
-224 223 34 0
224 -223 34 0
224 223 -34 0
-225 -224 -49 0
-225 224 49 0
225 -224 49 0
225 224 -49 0
-226 -225 -68 0
-226 225 68 0
226 -225 68 0
226 225 -68 0
-227 -226 -69 0
-227 226 69 0
227 -226 69 0
227 226 -69 0
-227 0
-228 -2 -8 0
-228 2 8 0
228 -2 8 0
228 2 -8 0
-229 -228 -35 0
-229 228 35 0
229 -228 35 0
229 228 -35 0
-230 -229 -50 0
-230 229 50 0
230 -229 50 0
230 229 -50 0
-231 -230 -69 0
-231 230 69 0
231 -230 69 0
231 230 -69 0
-232 -231 -70 0
-232 231 70 0
232 -231 70 0
232 231 -70 0
-232 0
-233 -3 -9 0
-233 3 9 0
233 -3 9 0
233 3 -9 0
-234 -233 -36 0
-234 233 36 0
234 -233 36 0
234 233 -36 0
-235 -234 -51 0
-235 234 51 0
235 -234 51 0
235 234 -51 0
-236 -235 -70 0
-236 235 70 0
236 -235 70 0
236 235 -70 0
-237 -236 -71 0
-237 236 71 0
237 -236 71 0
237 236 -71 0
-237 0
-238 -4 -10 0
-238 4 10 0
238 -4 10 0
238 4 -10 0
-239 -238 -31 0
-239 238 31 0
239 -238 31 0
239 238 -31 0
-240 -239 -52 0
-240 239 52 0
240 -239 52 0
240 239 -52 0
-241 -240 -71 0
-241 240 71 0
241 -240 71 0
241 240 -71 0
-242 -241 -72 0
-242 241 72 0
242 -241 72 0
242 241 -72 0
-242 0
-243 -5 -11 0
-243 5 11 0
243 -5 11 0
243 5 -11 0
-244 -243 -32 0
-244 243 32 0
244 -243 32 0
244 243 -32 0
-245 -244 -53 0
-245 244 53 0
245 -244 53 0
245 244 -53 0
-246 -245 -67 0
-246 245 67 0
246 -245 67 0
246 245 -67 0
-247 -246 -72 0
-247 246 72 0
247 -246 72 0
247 246 -72 0
-247 0
-248 -6 -12 0
-248 6 12 0
248 -6 12 0
248 6 -12 0
-249 -248 -33 0
-249 248 33 0
249 -248 33 0
249 248 -33 0
-250 -249 -54 0
-250 249 54 0
250 -249 54 0
250 249 -54 0
-251 -250 -67 0
-251 250 67 0
251 -250 67 0
251 250 -67 0
-252 -251 -68 0
-252 251 68 0
252 -251 68 0
252 251 -68 0
-252 0
-253 -7 -8 0
-253 7 8 0
253 -7 8 0
253 7 -8 0
-254 -253 -9 0
-254 253 9 0
254 -253 9 0
254 253 -9 0
-255 -254 -12 0
-255 254 12 0
255 -254 12 0
255 254 -12 0
-256 -255 -25 0
-256 255 25 0
256 -255 25 0
256 255 -25 0
-257 -256 -29 0
-257 256 29 0
257 -256 29 0
257 256 -29 0
-258 -7 -8 0
-258 7 8 0
258 -7 8 0
258 7 -8 0
-259 -258 -9 0
-259 258 9 0
259 -258 9 0
259 258 -9 0
-260 -259 -10 0
-260 259 10 0
260 -259 10 0
260 259 -10 0
-261 -260 -26 0
-261 260 26 0
261 -260 26 0
261 260 -26 0
-262 -261 -30 0
-262 261 30 0
262 -261 30 0
262 261 -30 0
-263 -14 -15 0
-263 14 15 0
263 -14 15 0
263 14 -15 0
-264 -263 -16 0
-264 263 16 0
264 -263 16 0
264 263 -16 0
-265 -264 -17 0
-265 264 17 0
265 -264 17 0
265 264 -17 0
-266 -265 -31 0
-266 265 31 0
266 -265 31 0
266 265 -31 0
-267 -266 -33 0
-267 266 33 0
267 -266 33 0
267 266 -33 0
-268 -15 -16 0
-268 15 16 0
268 -15 16 0
268 15 -16 0
-269 -268 -17 0
-269 268 17 0
269 -268 17 0
269 268 -17 0
-270 -269 -18 0
-270 269 18 0
270 -269 18 0
270 269 -18 0
-271 -270 -32 0
-271 270 32 0
271 -270 32 0
271 270 -32 0
-272 -271 -34 0
-272 271 34 0
272 -271 34 0
272 271 -34 0
-273 -13 -14 0
-273 13 14 0
273 -13 14 0
273 13 -14 0
-274 -273 -15 0
-274 273 15 0
274 -273 15 0
274 273 -15 0
-275 -274 -18 0
-275 274 18 0
275 -274 18 0
275 274 -18 0
-276 -275 -31 0
-276 275 31 0
276 -275 31 0
276 275 -31 0
-277 -276 -35 0
-277 276 35 0
277 -276 35 0
277 276 -35 0
-278 -13 -14 0
-278 13 14 0
278 -13 14 0
278 13 -14 0
-279 -278 -15 0
-279 278 15 0
279 -278 15 0
279 278 -15 0
-280 -279 -16 0
-280 279 16 0
280 -279 16 0
280 279 -16 0
-281 -280 -32 0
-281 280 32 0
281 -280 32 0
281 280 -32 0
-282 -281 -36 0
-282 281 36 0
282 -281 36 0
282 281 -36 0
-283 -1 -2 0
-283 1 2 0
283 -1 2 0
283 1 -2 0
-284 -283 -4 0
-284 283 4 0
284 -283 4 0
284 283 -4 0
-285 -284 -8 0
-285 284 8 0
285 -284 8 0
285 284 -8 0
-286 -285 -10 0
-286 285 10 0
286 -285 10 0
286 285 -10 0
-287 -286 -20 0
-287 286 20 0
287 -286 20 0
287 286 -20 0
-288 -287 -25 0
-288 287 25 0
288 -287 25 0
288 287 -25 0
-289 -288 -26 0
-289 288 26 0
289 -288 26 0
289 288 -26 0
-290 -289 -37 0
-290 289 37 0
290 -289 37 0
290 289 -37 0
-291 -290 -38 0
-291 290 38 0
291 -290 38 0
291 290 -38 0
-292 -291 -39 0
-292 291 39 0
292 -291 39 0
292 291 -39 0
-293 -292 -43 0
-293 292 43 0
293 -292 43 0
293 292 -43 0
-294 -293 -44 0
-294 293 44 0
294 -293 44 0
294 293 -44 0
-295 -294 -45 0
-295 294 45 0
295 -294 45 0
295 294 -45 0
-296 -1 -2 0
-296 1 2 0
296 -1 2 0
296 1 -2 0
-297 -296 -19 0
-297 296 19 0
297 -296 19 0
297 296 -19 0
-298 -297 -20 0
-298 297 20 0
298 -297 20 0
298 297 -20 0
-299 -298 -37 0
-299 298 37 0
299 -298 37 0
299 298 -37 0
-300 -299 -40 0
-300 299 40 0
300 -299 40 0
300 299 -40 0
-301 -300 -43 0
-301 300 43 0
301 -300 43 0
301 300 -43 0
-302 -301 -46 0
-302 301 46 0
302 -301 46 0
302 301 -46 0
-303 -3 -7 0
-303 3 7 0
303 -3 7 0
303 3 -7 0
-304 -303 -8 0
-304 303 8 0
304 -303 8 0
304 303 -8 0
-305 -304 -9 0
-305 304 9 0
305 -304 9 0
305 304 -9 0
-306 -305 -19 0
-306 305 19 0
306 -305 19 0
306 305 -19 0
-307 -306 -25 0
-307 306 25 0
307 -306 25 0
307 306 -25 0
-308 -307 -37 0
-308 307 37 0
308 -307 37 0
308 307 -37 0
-309 -308 -38 0
-309 308 38 0
309 -308 38 0
309 308 -38 0
-310 -309 -40 0
-310 309 40 0
310 -309 40 0
310 309 -40 0
-311 -310 -43 0
-311 310 43 0
311 -310 43 0
311 310 -43 0
-312 -311 -44 0
-312 311 44 0
312 -311 44 0
312 311 -44 0
-313 -312 -49 0
-313 312 49 0
313 -312 49 0
313 312 -49 0
-314 -1 -2 0
-314 1 2 0
314 -1 2 0
314 1 -2 0
-315 -314 -3 0
-315 314 3 0
315 -314 3 0
315 314 -3 0
-316 -315 -4 0
-316 315 4 0
316 -315 4 0
316 315 -4 0
-317 -316 -8 0
-317 316 8 0
317 -316 8 0
317 316 -8 0
-318 -317 -14 0
-318 317 14 0
318 -317 14 0
318 317 -14 0
-319 -318 -15 0
-319 318 15 0
319 -318 15 0
319 318 -15 0
-320 -319 -20 0
-320 319 20 0
320 -319 20 0
320 319 -20 0
-321 -320 -31 0
-321 320 31 0
321 -320 31 0
321 320 -31 0
-322 -321 -39 0
-322 321 39 0
322 -321 39 0
322 321 -39 0
-323 -322 -43 0
-323 322 43 0
323 -322 43 0
323 322 -43 0
-324 -323 -50 0
-324 323 50 0
324 -323 50 0
324 323 -50 0
-325 -9 -15 0
-325 9 15 0
325 -9 15 0
325 9 -15 0
-326 -325 -16 0
-326 325 16 0
326 -325 16 0
326 325 -16 0
-327 -326 -19 0
-327 326 19 0
327 -326 19 0
327 326 -19 0
-328 -327 -32 0
-328 327 32 0
328 -327 32 0
328 327 -32 0
-329 -328 -40 0
-329 328 40 0
329 -328 40 0
329 328 -40 0
-330 -329 -44 0
-330 329 44 0
330 -329 44 0
330 329 -44 0
-331 -330 -51 0
-331 330 51 0
331 -330 51 0
331 330 -51 0
-332 -1 -2 0
-332 1 2 0
332 -1 2 0
332 1 -2 0
-333 -332 -3 0
-333 332 3 0
333 -332 3 0
333 332 -3 0
-334 -333 -9 0
-334 333 9 0
334 -333 9 0
334 333 -9 0
-335 -334 -20 0
-335 334 20 0
335 -334 20 0
335 334 -20 0
-336 -335 -26 0
-336 335 26 0
336 -335 26 0
336 335 -26 0
-337 -336 -38 0
-337 336 38 0
337 -336 38 0
337 336 -38 0
-338 -337 -43 0
-338 337 43 0
338 -337 43 0
338 337 -43 0
-339 -338 -44 0
-339 338 44 0
339 -338 44 0
339 338 -44 0
-340 -339 -52 0
-340 339 52 0
340 -339 52 0
340 339 -52 0
257 262 267 272 277 282 295 302 313 324 331 340 0
-1 341 0
-341 342 0
-2 -341 343 0
-343 344 0
-3 -343 345 0
-345 346 0
-4 -345 347 0
-347 348 0
-5 -347 349 0
-349 350 0
-6 -349 0
-2 342 0
-342 351 0
-3 -342 344 0
-344 352 0
-4 -344 346 0
-346 353 0
-5 -346 348 0
-348 354 0
-6 -348 350 0
-350 355 0
-7 -350 0
-3 351 0
-351 356 0
-4 -351 352 0
-352 357 0
-5 -352 353 0
-353 358 0
-6 -353 354 0
-354 359 0
-7 -354 355 0
-355 360 0
-8 -355 0
-4 356 0
-356 361 0
-5 -356 357 0
-357 362 0
-6 -357 358 0
-358 363 0
-7 -358 359 0
-359 364 0
-8 -359 360 0
-360 365 0
-9 -360 0
-5 361 0
-361 366 0
-6 -361 362 0
-362 367 0
-7 -362 363 0
-363 368 0
-8 -363 364 0
-364 369 0
-9 -364 365 0
-365 370 0
-10 -365 0
-6 366 0
-366 371 0
-7 -366 367 0
-367 372 0
-8 -367 368 0
-368 373 0
-9 -368 369 0
-369 374 0
-10 -369 370 0
-370 375 0
-11 -370 0
-7 371 0
-371 376 0
-8 -371 372 0
-372 377 0
-9 -372 373 0
-373 378 0
-10 -373 374 0
-374 379 0
-11 -374 375 0
-375 380 0
-12 -375 0
-8 376 0
-376 381 0
-9 -376 377 0
-377 382 0
-10 -377 378 0
-378 383 0
-11 -378 379 0
-379 384 0
-12 -379 380 0
-380 385 0
-13 -380 0
-9 381 0
-381 386 0
-10 -381 382 0
-382 387 0
-11 -382 383 0
-383 388 0
-12 -383 384 0
-384 389 0
-13 -384 385 0
-385 390 0
-14 -385 0
-10 386 0
-386 391 0
-11 -386 387 0
-387 392 0
-12 -387 388 0
-388 393 0
-13 -388 389 0
-389 394 0
-14 -389 390 0
-390 395 0
-15 -390 0
-11 391 0
-391 396 0
-12 -391 392 0
-392 397 0
-13 -392 393 0
-393 398 0
-14 -393 394 0
-394 399 0
-15 -394 395 0
-395 400 0
-16 -395 0
-12 396 0
-396 401 0
-13 -396 397 0
-397 402 0
-14 -397 398 0
-398 403 0
-15 -398 399 0
-399 404 0
-16 -399 400 0
-400 405 0
-17 -400 0
-13 401 0
-401 406 0
-14 -401 402 0
-402 407 0
-15 -402 403 0
-403 408 0
-16 -403 404 0
-404 409 0
-17 -404 405 0
-405 410 0
-18 -405 0
-14 406 0
-406 411 0
-15 -406 407 0
-407 412 0
-16 -407 408 0
-408 413 0
-17 -408 409 0
-409 414 0
-18 -409 410 0
-410 415 0
-19 -410 0
-15 411 0
-411 416 0
-16 -411 412 0
-412 417 0
-17 -412 413 0
-413 418 0
-18 -413 414 0
-414 419 0
-19 -414 415 0
-415 420 0
-20 -415 0
-16 416 0
-416 421 0
-17 -416 417 0
-417 422 0
-18 -417 418 0
-418 423 0
-19 -418 419 0
-419 424 0
-20 -419 420 0
-420 425 0
-21 -420 0
-17 421 0
-421 426 0
-18 -421 422 0
-422 427 0
-19 -422 423 0
-423 428 0
-20 -423 424 0
-424 429 0
-21 -424 425 0
-425 430 0
-22 -425 0
-18 426 0
-426 431 0
-19 -426 427 0
-427 432 0
-20 -427 428 0
-428 433 0
-21 -428 429 0
-429 434 0
-22 -429 430 0
-430 435 0
-23 -430 0
-19 431 0
-431 436 0
-20 -431 432 0
-432 437 0
-21 -432 433 0
-433 438 0
-22 -433 434 0
-434 439 0
-23 -434 435 0
-435 440 0
-24 -435 0
-20 436 0
-436 441 0
-21 -436 437 0
-437 442 0
-22 -437 438 0
-438 443 0
-23 -438 439 0
-439 444 0
-24 -439 440 0
-440 445 0
-25 -440 0
-21 441 0
-441 446 0
-22 -441 442 0
-442 447 0
-23 -442 443 0
-443 448 0
-24 -443 444 0
-444 449 0
-25 -444 445 0
-445 450 0
-26 -445 0
-22 446 0
-446 451 0
-23 -446 447 0
-447 452 0
-24 -447 448 0
-448 453 0
-25 -448 449 0
-449 454 0
-26 -449 450 0
-450 455 0
-27 -450 0
-23 451 0
-451 456 0
-24 -451 452 0
-452 457 0
-25 -452 453 0
-453 458 0
-26 -453 454 0
-454 459 0
-27 -454 455 0
-455 460 0
-28 -455 0
-24 456 0
-456 461 0
-25 -456 457 0
-457 462 0
-26 -457 458 0
-458 463 0
-27 -458 459 0
-459 464 0
-28 -459 460 0
-460 465 0
-29 -460 0
-25 461 0
-461 466 0
-26 -461 462 0
-462 467 0
-27 -462 463 0
-463 468 0
-28 -463 464 0
-464 469 0
-29 -464 465 0
-465 470 0
-30 -465 0
-26 466 0
-466 471 0
-27 -466 467 0
-467 472 0
-28 -467 468 0
-468 473 0
-29 -468 469 0
-469 474 0
-30 -469 470 0
-470 475 0
-31 -470 0
-27 471 0
-471 476 0
-28 -471 472 0
-472 477 0
-29 -472 473 0
-473 478 0
-30 -473 474 0
-474 479 0
-31 -474 475 0
-475 480 0
-32 -475 0
-28 476 0
-476 481 0
-29 -476 477 0
-477 482 0
-30 -477 478 0
-478 483 0
-31 -478 479 0
-479 484 0
-32 -479 480 0
-480 485 0
-33 -480 0
-29 481 0
-481 486 0
-30 -481 482 0
-482 487 0
-31 -482 483 0
-483 488 0
-32 -483 484 0
-484 489 0
-33 -484 485 0
-485 490 0
-34 -485 0
-30 486 0
-486 491 0
-31 -486 487 0
-487 492 0
-32 -487 488 0
-488 493 0
-33 -488 489 0
-489 494 0
-34 -489 490 0
-490 495 0
-35 -490 0
-31 491 0
-491 496 0
-32 -491 492 0
-492 497 0
-33 -492 493 0
-493 498 0
-34 -493 494 0
-494 499 0
-35 -494 495 0
-495 500 0
-36 -495 0
-32 496 0
-496 501 0
-33 -496 497 0
-497 502 0
-34 -497 498 0
-498 503 0
-35 -498 499 0
-499 504 0
-36 -499 500 0
-500 505 0
-37 -500 0
-33 501 0
-501 506 0
-34 -501 502 0
-502 507 0
-35 -502 503 0
-503 508 0
-36 -503 504 0
-504 509 0
-37 -504 505 0
-505 510 0
-38 -505 0
-34 506 0
-506 511 0
-35 -506 507 0
-507 512 0
-36 -507 508 0
-508 513 0
-37 -508 509 0
-509 514 0
-38 -509 510 0
-510 515 0
-39 -510 0
-35 511 0
-511 516 0
-36 -511 512 0
-512 517 0
-37 -512 513 0
-513 518 0
-38 -513 514 0
-514 519 0
-39 -514 515 0
-515 520 0
-40 -515 0
-36 516 0
-516 521 0
-37 -516 517 0
-517 522 0
-38 -517 518 0
-518 523 0
-39 -518 519 0
-519 524 0
-40 -519 520 0
-520 525 0
-41 -520 0
-37 521 0
-521 526 0
-38 -521 522 0
-522 527 0
-39 -522 523 0
-523 528 0
-40 -523 524 0
-524 529 0
-41 -524 525 0
-525 530 0
-42 -525 0
-38 526 0
-526 531 0
-39 -526 527 0
-527 532 0
-40 -527 528 0
-528 533 0
-41 -528 529 0
-529 534 0
-42 -529 530 0
-530 535 0
-43 -530 0
-39 531 0
-531 536 0
-40 -531 532 0
-532 537 0
-41 -532 533 0
-533 538 0
-42 -533 534 0
-534 539 0
-43 -534 535 0
-535 540 0
-44 -535 0
-40 536 0
-536 541 0
-41 -536 537 0
-537 542 0
-42 -537 538 0
-538 543 0
-43 -538 539 0
-539 544 0
-44 -539 540 0
-540 545 0
-45 -540 0
-41 541 0
-541 546 0
-42 -541 542 0
-542 547 0
-43 -542 543 0
-543 548 0
-44 -543 544 0
-544 549 0
-45 -544 545 0
-545 550 0
-46 -545 0
-42 546 0
-546 551 0
-43 -546 547 0
-547 552 0
-44 -547 548 0
-548 553 0
-45 -548 549 0
-549 554 0
-46 -549 550 0
-550 555 0
-47 -550 0
-43 551 0
-551 556 0
-44 -551 552 0
-552 557 0
-45 -552 553 0
-553 558 0
-46 -553 554 0
-554 559 0
-47 -554 555 0
-555 560 0
-48 -555 0
-44 556 0
-556 561 0
-45 -556 557 0
-557 562 0
-46 -557 558 0
-558 563 0
-47 -558 559 0
-559 564 0
-48 -559 560 0
-560 565 0
-49 -560 0
-45 561 0
-561 566 0
-46 -561 562 0
-562 567 0
-47 -562 563 0
-563 568 0
-48 -563 564 0
-564 569 0
-49 -564 565 0
-565 570 0
-50 -565 0
-46 566 0
-566 571 0
-47 -566 567 0
-567 572 0
-48 -567 568 0
-568 573 0
-49 -568 569 0
-569 574 0
-50 -569 570 0
-570 575 0
-51 -570 0
-47 571 0
-571 576 0
-48 -571 572 0
-572 577 0
-49 -572 573 0
-573 578 0
-50 -573 574 0
-574 579 0
-51 -574 575 0
-575 580 0
-52 -575 0
-48 576 0
-576 581 0
-49 -576 577 0
-577 582 0
-50 -577 578 0
-578 583 0
-51 -578 579 0
-579 584 0
-52 -579 580 0
-580 585 0
-53 -580 0
-49 581 0
-581 586 0
-50 -581 582 0
-582 587 0
-51 -582 583 0
-583 588 0
-52 -583 584 0
-584 589 0
-53 -584 585 0
-585 590 0
-54 -585 0
-50 586 0
-586 591 0
-51 -586 587 0
-587 592 0
-52 -587 588 0
-588 593 0
-53 -588 589 0
-589 594 0
-54 -589 590 0
-590 595 0
-55 -590 0
-51 591 0
-591 596 0
-52 -591 592 0
-592 597 0
-53 -592 593 0
-593 598 0
-54 -593 594 0
-594 599 0
-55 -594 595 0
-595 600 0
-56 -595 0
-52 596 0
-596 601 0
-53 -596 597 0
-597 602 0
-54 -597 598 0
-598 603 0
-55 -598 599 0
-599 604 0
-56 -599 600 0
-600 605 0
-57 -600 0
-53 601 0
-601 606 0
-54 -601 602 0
-602 607 0
-55 -602 603 0
-603 608 0
-56 -603 604 0
-604 609 0
-57 -604 605 0
-605 610 0
-58 -605 0
-54 606 0
-606 611 0
-55 -606 607 0
-607 612 0
-56 -607 608 0
-608 613 0
-57 -608 609 0
-609 614 0
-58 -609 610 0
-610 615 0
-59 -610 0
-55 611 0
-611 616 0
-56 -611 612 0
-612 617 0
-57 -612 613 0
-613 618 0
-58 -613 614 0
-614 619 0
-59 -614 615 0
-615 620 0
-60 -615 0
-56 616 0
-616 621 0
-57 -616 617 0
-617 622 0
-58 -617 618 0
-618 623 0
-59 -618 619 0
-619 624 0
-60 -619 620 0
-620 625 0
-61 -620 0
-57 621 0
-621 626 0
-58 -621 622 0
-622 627 0
-59 -622 623 0
-623 628 0
-60 -623 624 0
-624 629 0
-61 -624 625 0
-625 630 0
-62 -625 0
-58 626 0
-626 631 0
-59 -626 627 0
-627 632 0
-60 -627 628 0
-628 633 0
-61 -628 629 0
-629 634 0
-62 -629 630 0
-630 635 0
-63 -630 0
-59 631 0
-631 636 0
-60 -631 632 0
-632 637 0
-61 -632 633 0
-633 638 0
-62 -633 634 0
-634 639 0
-63 -634 635 0
-635 640 0
-64 -635 0
-60 636 0
-636 641 0
-61 -636 637 0
-637 642 0
-62 -637 638 0
-638 643 0
-63 -638 639 0
-639 644 0
-64 -639 640 0
-640 645 0
-65 -640 0
-61 641 0
-641 646 0
-62 -641 642 0
-642 647 0
-63 -642 643 0
-643 648 0
-64 -643 644 0
-644 649 0
-65 -644 645 0
-645 650 0
-66 -645 0
-62 646 0
-646 651 0
-63 -646 647 0
-647 652 0
-64 -647 648 0
-648 653 0
-65 -648 649 0
-649 654 0
-66 -649 650 0
-650 655 0
-67 -650 0
-63 651 0
-651 656 0
-64 -651 652 0
-652 657 0
-65 -652 653 0
-653 658 0
-66 -653 654 0
-654 659 0
-67 -654 655 0
-655 660 0
-68 -655 0
-64 656 0
-656 661 0
-65 -656 657 0
-657 662 0
-66 -657 658 0
-658 663 0
-67 -658 659 0
-659 664 0
-68 -659 660 0
-660 665 0
-69 -660 0
-65 661 0
-661 666 0
-66 -661 662 0
-662 667 0
-67 -662 663 0
-663 668 0
-68 -663 664 0
-664 669 0
-69 -664 665 0
-665 670 0
-70 -665 0
-66 666 0
-666 671 0
-67 -666 667 0
-667 672 0
-68 -667 668 0
-668 673 0
-69 -668 669 0
-669 674 0
-70 -669 670 0
-670 675 0
-71 -670 0
-67 671 0
-68 -671 672 0
-69 -672 673 0
-70 -673 674 0
-71 -674 675 0
-72 -675 0
