p cnf 612 1717
-73 -4 -7 0
-73 4 7 0
73 -4 7 0
73 4 -7 0
-74 -73 -13 0
-74 73 13 0
74 -73 13 0
74 73 -13 0
-75 -74 -38 0
-75 74 38 0
75 -74 38 0
75 74 -38 0
-76 -75 -39 0
-76 75 39 0
76 -75 39 0
76 75 -39 0
-77 -76 -55 0
-77 76 55 0
77 -76 55 0
77 76 -55 0
-77 0
-78 -5 -8 0
-78 5 8 0
78 -5 8 0
78 5 -8 0
-79 -78 -14 0
-79 78 14 0
79 -78 14 0
79 78 -14 0
-80 -79 -39 0
-80 79 39 0
80 -79 39 0
80 79 -39 0
-81 -80 -40 0
-81 80 40 0
81 -80 40 0
81 80 -40 0
-82 -81 -56 0
-82 81 56 0
82 -81 56 0
82 81 -56 0
-82 0
-83 -6 -9 0
-83 6 9 0
83 -6 9 0
83 6 -9 0
-84 -83 -15 0
-84 83 15 0
84 -83 15 0
84 83 -15 0
-85 -84 -40 0
-85 84 40 0
85 -84 40 0
85 84 -40 0
-86 -85 -41 0
-86 85 41 0
86 -85 41 0
86 85 -41 0
-87 -86 -57 0
-87 86 57 0
87 -86 57 0
87 86 -57 0
-87 0
-88 -1 -10 0
-88 1 10 0
88 -1 10 0
88 1 -10 0
-89 -88 -16 0
-89 88 16 0
89 -88 16 0
89 88 -16 0
-90 -89 -41 0
-90 89 41 0
90 -89 41 0
90 89 -41 0
-91 -90 -42 0
-91 90 42 0
91 -90 42 0
91 90 -42 0
-92 -91 -58 0
-92 91 58 0
92 -91 58 0
92 91 -58 0
-92 0
-93 -2 -11 0
-93 2 11 0
93 -2 11 0
93 2 -11 0
-94 -93 -17 0
-94 93 17 0
94 -93 17 0
94 93 -17 0
-95 -94 -37 0
-95 94 37 0
95 -94 37 0
95 94 -37 0
-96 -95 -42 0
-96 95 42 0
96 -95 42 0
96 95 -42 0
-97 -96 -59 0
-97 96 59 0
97 -96 59 0
97 96 -59 0
-97 0
-98 -3 -12 0
-98 3 12 0
98 -3 12 0
98 3 -12 0
-99 -98 -18 0
-99 98 18 0
99 -98 18 0
99 98 -18 0
-100 -99 -37 0
-100 99 37 0
100 -99 37 0
100 99 -37 0
-101 -100 -38 0
-101 100 38 0
101 -100 38 0
101 100 -38 0
-102 -101 -60 0
-102 101 60 0
102 -101 60 0
102 101 -60 0
-102 0
-103 -10 -13 0
-103 10 13 0
103 -10 13 0
103 10 -13 0
-104 -103 -19 0
-104 103 19 0
104 -103 19 0
104 103 -19 0
-105 -104 -44 0
-105 104 44 0
105 -104 44 0
105 104 -44 0
-106 -105 -45 0
-106 105 45 0
106 -105 45 0
106 105 -45 0
-107 -106 -61 0
-107 106 61 0
107 -106 61 0
107 106 -61 0
-107 0
-108 -11 -14 0
-108 11 14 0
108 -11 14 0
108 11 -14 0
-109 -108 -20 0
-109 108 20 0
109 -108 20 0
109 108 -20 0
-110 -109 -45 0
-110 109 45 0
110 -109 45 0
110 109 -45 0
-111 -110 -46 0
-111 110 46 0
111 -110 46 0
111 110 -46 0
-112 -111 -62 0
-112 111 62 0
112 -111 62 0
112 111 -62 0
-112 0
-113 -12 -15 0
-113 12 15 0
113 -12 15 0
113 12 -15 0
-114 -113 -21 0
-114 113 21 0
114 -113 21 0
114 113 -21 0
-115 -114 -46 0
-115 114 46 0
115 -114 46 0
115 114 -46 0
-116 -115 -47 0
-116 115 47 0
116 -115 47 0
116 115 -47 0
-117 -116 -63 0
-117 116 63 0
117 -116 63 0
117 116 -63 0
-117 0
-118 -7 -16 0
-118 7 16 0
118 -7 16 0
118 7 -16 0
-119 -118 -22 0
-119 118 22 0
119 -118 22 0
119 118 -22 0
-120 -119 -47 0
-120 119 47 0
120 -119 47 0
120 119 -47 0
-121 -120 -48 0
-121 120 48 0
121 -120 48 0
121 120 -48 0
-122 -121 -64 0
-122 121 64 0
122 -121 64 0
122 121 -64 0
-122 0
-123 -8 -17 0
-123 8 17 0
123 -8 17 0
123 8 -17 0
-124 -123 -23 0
-124 123 23 0
124 -123 23 0
124 123 -23 0
-125 -124 -43 0
-125 124 43 0
125 -124 43 0
125 124 -43 0
-126 -125 -48 0
-126 125 48 0
126 -125 48 0
126 125 -48 0
-127 -126 -65 0
-127 126 65 0
127 -126 65 0
127 126 -65 0
-127 0
-128 -9 -18 0
-128 9 18 0
128 -9 18 0
128 9 -18 0
-129 -128 -24 0
-129 128 24 0
129 -128 24 0
129 128 -24 0
-130 -129 -43 0
-130 129 43 0
130 -129 43 0
130 129 -43 0
-131 -130 -44 0
-131 130 44 0
131 -130 44 0
131 130 -44 0
-132 -131 -66 0
-132 131 66 0
132 -131 66 0
132 131 -66 0
-132 0
-133 -16 -19 0
-133 16 19 0
133 -16 19 0
133 16 -19 0
-134 -133 -25 0
-134 133 25 0
134 -133 25 0
134 133 -25 0
-135 -134 -50 0
-135 134 50 0
135 -134 50 0
135 134 -50 0
-136 -135 -51 0
-136 135 51 0
136 -135 51 0
136 135 -51 0
-137 -136 -67 0
-137 136 67 0
137 -136 67 0
137 136 -67 0
-137 0
-138 -17 -20 0
-138 17 20 0
138 -17 20 0
138 17 -20 0
-139 -138 -26 0
-139 138 26 0
139 -138 26 0
139 138 -26 0
-140 -139 -51 0
-140 139 51 0
140 -139 51 0
140 139 -51 0
-141 -140 -52 0
-141 140 52 0
141 -140 52 0
141 140 -52 0
-142 -141 -68 0
-142 141 68 0
142 -141 68 0
142 141 -68 0
-142 0
-143 -18 -21 0
-143 18 21 0
143 -18 21 0
143 18 -21 0
-144 -143 -27 0
-144 143 27 0
144 -143 27 0
144 143 -27 0
-145 -144 -52 0
-145 144 52 0
145 -144 52 0
145 144 -52 0
-146 -145 -53 0
-146 145 53 0
146 -145 53 0
146 145 -53 0
-147 -146 -69 0
-147 146 69 0
147 -146 69 0
147 146 -69 0
-147 0
-148 -13 -22 0
-148 13 22 0
148 -13 22 0
148 13 -22 0
-149 -148 -28 0
-149 148 28 0
149 -148 28 0
149 148 -28 0
-150 -149 -53 0
-150 149 53 0
150 -149 53 0
150 149 -53 0
-151 -150 -54 0
-151 150 54 0
151 -150 54 0
151 150 -54 0
-152 -151 -70 0
-152 151 70 0
152 -151 70 0
152 151 -70 0
-152 0
-153 -14 -23 0
-153 14 23 0
153 -14 23 0
153 14 -23 0
-154 -153 -29 0
-154 153 29 0
154 -153 29 0
154 153 -29 0
-155 -154 -49 0
-155 154 49 0
155 -154 49 0
155 154 -49 0
-156 -155 -54 0
-156 155 54 0
156 -155 54 0
156 155 -54 0
-157 -156 -71 0
-157 156 71 0
157 -156 71 0
157 156 -71 0
-157 0
-158 -15 -24 0
-158 15 24 0
158 -15 24 0
158 15 -24 0
-159 -158 -30 0
-159 158 30 0
159 -158 30 0
159 158 -30 0
-160 -159 -49 0
-160 159 49 0
160 -159 49 0
160 159 -49 0
-161 -160 -50 0
-161 160 50 0
161 -160 50 0
161 160 -50 0
-162 -161 -72 0
-162 161 72 0
162 -161 72 0
162 161 -72 0
-162 0
-163 -22 -25 0
-163 22 25 0
163 -22 25 0
163 22 -25 0
-164 -163 -31 0
-164 163 31 0
164 -163 31 0
164 163 -31 0
-165 -164 -37 0
-165 164 37 0
165 -164 37 0
165 164 -37 0
-166 -165 -56 0
-166 165 56 0
166 -165 56 0
166 165 -56 0
-167 -166 -57 0
-167 166 57 0
167 -166 57 0
167 166 -57 0
-167 0
-168 -23 -26 0
-168 23 26 0
168 -23 26 0
168 23 -26 0
-169 -168 -32 0
-169 168 32 0
169 -168 32 0
169 168 -32 0
-170 -169 -38 0
-170 169 38 0
170 -169 38 0
170 169 -38 0
-171 -170 -57 0
-171 170 57 0
171 -170 57 0
171 170 -57 0
-172 -171 -58 0
-172 171 58 0
172 -171 58 0
172 171 -58 0
-172 0
-173 -24 -27 0
-173 24 27 0
173 -24 27 0
173 24 -27 0
-174 -173 -33 0
-174 173 33 0
174 -173 33 0
174 173 -33 0
-175 -174 -39 0
-175 174 39 0
175 -174 39 0
175 174 -39 0
-176 -175 -58 0
-176 175 58 0
176 -175 58 0
176 175 -58 0
-177 -176 -59 0
-177 176 59 0
177 -176 59 0
177 176 -59 0
-177 0
-178 -19 -28 0
-178 19 28 0
178 -19 28 0
178 19 -28 0
-179 -178 -34 0
-179 178 34 0
179 -178 34 0
179 178 -34 0
-180 -179 -40 0
-180 179 40 0
180 -179 40 0
180 179 -40 0
-181 -180 -59 0
-181 180 59 0
181 -180 59 0
181 180 -59 0
-182 -181 -60 0
-182 181 60 0
182 -181 60 0
182 181 -60 0
-182 0
-183 -20 -29 0
-183 20 29 0
183 -20 29 0
183 20 -29 0
-184 -183 -35 0
-184 183 35 0
184 -183 35 0
184 183 -35 0
-185 -184 -41 0
-185 184 41 0
185 -184 41 0
185 184 -41 0
-186 -185 -55 0
-186 185 55 0
186 -185 55 0
186 185 -55 0
-187 -186 -60 0
-187 186 60 0
187 -186 60 0
187 186 -60 0
-187 0
-188 -21 -30 0
-188 21 30 0
188 -21 30 0
188 21 -30 0
-189 -188 -36 0
-189 188 36 0
189 -188 36 0
189 188 -36 0
-190 -189 -42 0
-190 189 42 0
190 -189 42 0
190 189 -42 0
-191 -190 -55 0
-191 190 55 0
191 -190 55 0
191 190 -55 0
-192 -191 -56 0
-192 191 56 0
192 -191 56 0
192 191 -56 0
-192 0
-193 -1 -28 0
-193 1 28 0
193 -1 28 0
193 1 -28 0
-194 -193 -31 0
-194 193 31 0
194 -193 31 0
194 193 -31 0
-195 -194 -43 0
-195 194 43 0
195 -194 43 0
195 194 -43 0
-196 -195 -62 0
-196 195 62 0
196 -195 62 0
196 195 -62 0
-197 -196 -63 0
-197 196 63 0
197 -196 63 0
197 196 -63 0
-197 0
-198 -2 -29 0
-198 2 29 0
198 -2 29 0
198 2 -29 0
-199 -198 -32 0
-199 198 32 0
199 -198 32 0
199 198 -32 0
-200 -199 -44 0
-200 199 44 0
200 -199 44 0
200 199 -44 0
-201 -200 -63 0
-201 200 63 0
201 -200 63 0
201 200 -63 0
-202 -201 -64 0
-202 201 64 0
202 -201 64 0
202 201 -64 0
-202 0
-203 -3 -30 0
-203 3 30 0
203 -3 30 0
203 3 -30 0
-204 -203 -33 0
-204 203 33 0
204 -203 33 0
204 203 -33 0
-205 -204 -45 0
-205 204 45 0
205 -204 45 0
205 204 -45 0
-206 -205 -64 0
-206 205 64 0
206 -205 64 0
206 205 -64 0
-207 -206 -65 0
-207 206 65 0
207 -206 65 0
207 206 -65 0
-207 0
-208 -4 -25 0
-208 4 25 0
208 -4 25 0
208 4 -25 0
-209 -208 -34 0
-209 208 34 0
209 -208 34 0
209 208 -34 0
-210 -209 -46 0
-210 209 46 0
210 -209 46 0
210 209 -46 0
-211 -210 -65 0
-211 210 65 0
211 -210 65 0
211 210 -65 0
-212 -211 -66 0
-212 211 66 0
212 -211 66 0
212 211 -66 0
-212 0
-213 -5 -26 0
-213 5 26 0
213 -5 26 0
213 5 -26 0
-214 -213 -35 0
-214 213 35 0
214 -213 35 0
214 213 -35 0
-215 -214 -47 0
-215 214 47 0
215 -214 47 0
215 214 -47 0
-216 -215 -61 0
-216 215 61 0
216 -215 61 0
216 215 -61 0
-217 -216 -66 0
-217 216 66 0
217 -216 66 0
217 216 -66 0
-217 0
-218 -6 -27 0
-218 6 27 0
218 -6 27 0
218 6 -27 0
-219 -218 -36 0
-219 218 36 0
219 -218 36 0
219 218 -36 0
-220 -219 -48 0
-220 219 48 0
220 -219 48 0
220 219 -48 0
-221 -220 -61 0
-221 220 61 0
221 -220 61 0
221 220 -61 0
-222 -221 -62 0
-222 221 62 0
222 -221 62 0
222 221 -62 0
-222 0
-223 -1 -7 0
-223 1 7 0
223 -1 7 0
223 1 -7 0
-224 -223 -34 0
-224 223 34 0
224 -223 34 0
224 223 -34 0
-225 -224 -49 0
-225 224 49 0
225 -224 49 0
225 224 -49 0
-226 -225 -68 0
-226 225 68 0
226 -225 68 0
226 225 -68 0
-227 -226 -69 0
-227 226 69 0
227 -226 69 0
227 226 -69 0
-227 0
-228 -2 -8 0
-228 2 8 0
228 -2 8 0
228 2 -8 0
-229 -228 -35 0
-229 228 35 0
229 -228 35 0
229 228 -35 0
-230 -229 -50 0
-230 229 50 0
230 -229 50 0
230 229 -50 0
-231 -230 -69 0
-231 230 69 0
231 -230 69 0
231 230 -69 0
-232 -231 -70 0
-232 231 70 0
232 -231 70 0
232 231 -70 0
-232 0
-233 -3 -9 0
-233 3 9 0
233 -3 9 0
233 3 -9 0
-234 -233 -36 0
-234 233 36 0
234 -233 36 0
234 233 -36 0
-235 -234 -51 0
-235 234 51 0
235 -234 51 0
235 234 -51 0
-236 -235 -70 0
-236 235 70 0
236 -235 70 0
236 235 -70 0
-237 -236 -71 0
-237 236 71 0
237 -236 71 0
237 236 -71 0
-237 0
-238 -4 -10 0
-238 4 10 0
238 -4 10 0
238 4 -10 0
-239 -238 -31 0
-239 238 31 0
239 -238 31 0
239 238 -31 0
-240 -239 -52 0
-240 239 52 0
240 -239 52 0
240 239 -52 0
-241 -240 -71 0
-241 240 71 0
241 -240 71 0
241 240 -71 0
-242 -241 -72 0
-242 241 72 0
242 -241 72 0
242 241 -72 0
-242 0
-243 -5 -11 0
-243 5 11 0
243 -5 11 0
243 5 -11 0
-244 -243 -32 0
-244 243 32 0
244 -243 32 0
244 243 -32 0
-245 -244 -53 0
-245 244 53 0
245 -244 53 0
245 244 -53 0
-246 -245 -67 0
-246 245 67 0
246 -245 67 0
246 245 -67 0
-247 -246 -72 0
-247 246 72 0
247 -246 72 0
247 246 -72 0
-247 0
-248 -6 -12 0
-248 6 12 0
248 -6 12 0
248 6 -12 0
-249 -248 -33 0
-249 248 33 0
249 -248 33 0
249 248 -33 0
-250 -249 -54 0
-250 249 54 0
250 -249 54 0
250 249 -54 0
-251 -250 -67 0
-251 250 67 0
251 -250 67 0
251 250 -67 0
-252 -251 -68 0
-252 251 68 0
252 -251 68 0
252 251 -68 0
-252 0
-253 -7 -8 0
-253 7 8 0
253 -7 8 0
253 7 -8 0
-254 -253 -9 0
-254 253 9 0
254 -253 9 0
254 253 -9 0
-255 -254 -12 0
-255 254 12 0
255 -254 12 0
255 254 -12 0
-256 -255 -25 0
-256 255 25 0
256 -255 25 0
256 255 -25 0
-257 -256 -29 0
-257 256 29 0
257 -256 29 0
257 256 -29 0
-258 -7 -8 0
-258 7 8 0
258 -7 8 0
258 7 -8 0
-259 -258 -9 0
-259 258 9 0
259 -258 9 0
259 258 -9 0
-260 -259 -10 0
-260 259 10 0
260 -259 10 0
260 259 -10 0
-261 -260 -26 0
-261 260 26 0
261 -260 26 0
261 260 -26 0
-262 -261 -30 0
-262 261 30 0
262 -261 30 0
262 261 -30 0
-263 -14 -15 0
-263 14 15 0
263 -14 15 0
263 14 -15 0
-264 -263 -16 0
-264 263 16 0
264 -263 16 0
264 263 -16 0
-265 -264 -17 0
-265 264 17 0
265 -264 17 0
265 264 -17 0
-266 -265 -31 0
-266 265 31 0
266 -265 31 0
266 265 -31 0
-267 -266 -33 0
-267 266 33 0
267 -266 33 0
267 266 -33 0
-268 -15 -16 0
-268 15 16 0
268 -15 16 0
268 15 -16 0
-269 -268 -17 0
-269 268 17 0
269 -268 17 0
269 268 -17 0
-270 -269 -18 0
-270 269 18 0
270 -269 18 0
270 269 -18 0
-271 -270 -32 0
-271 270 32 0
271 -270 32 0
271 270 -32 0
-272 -271 -34 0
-272 271 34 0
272 -271 34 0
272 271 -34 0
-273 -13 -14 0
-273 13 14 0
273 -13 14 0
273 13 -14 0
-274 -273 -15 0
-274 273 15 0
274 -273 15 0
274 273 -15 0
-275 -274 -18 0
-275 274 18 0
275 -274 18 0
275 274 -18 0
-276 -275 -31 0
-276 275 31 0
276 -275 31 0
276 275 -31 0
-277 -276 -35 0
-277 276 35 0
277 -276 35 0
277 276 -35 0
-278 -13 -14 0
-278 13 14 0
278 -13 14 0
278 13 -14 0
-279 -278 -15 0
-279 278 15 0
279 -278 15 0
279 278 -15 0
-280 -279 -16 0
-280 279 16 0
280 -279 16 0
280 279 -16 0
-281 -280 -32 0
-281 280 32 0
281 -280 32 0
281 280 -32 0
-282 -281 -36 0
-282 281 36 0
282 -281 36 0
282 281 -36 0
-283 -1 -2 0
-283 1 2 0
283 -1 2 0
283 1 -2 0
-284 -283 -4 0
-284 283 4 0
284 -283 4 0
284 283 -4 0
-285 -284 -8 0
-285 284 8 0
285 -284 8 0
285 284 -8 0
-286 -285 -10 0
-286 285 10 0
286 -285 10 0
286 285 -10 0
-287 -286 -20 0
-287 286 20 0
287 -286 20 0
287 286 -20 0
-288 -287 -25 0
-288 287 25 0
288 -287 25 0
288 287 -25 0
-289 -288 -26 0
-289 288 26 0
289 -288 26 0
289 288 -26 0
-290 -289 -37 0
-290 289 37 0
290 -289 37 0
290 289 -37 0
-291 -290 -38 0
-291 290 38 0
291 -290 38 0
291 290 -38 0
-292 -291 -39 0
-292 291 39 0
292 -291 39 0
292 291 -39 0
-293 -292 -43 0
-293 292 43 0
293 -292 43 0
293 292 -43 0
-294 -293 -44 0
-294 293 44 0
294 -293 44 0
294 293 -44 0
-295 -294 -45 0
-295 294 45 0
295 -294 45 0
295 294 -45 0
-296 -1 -2 0
-296 1 2 0
296 -1 2 0
296 1 -2 0
-297 -296 -19 0
-297 296 19 0
297 -296 19 0
297 296 -19 0
-298 -297 -20 0
-298 297 20 0
298 -297 20 0
298 297 -20 0
-299 -298 -37 0
-299 298 37 0
299 -298 37 0
299 298 -37 0
-300 -299 -40 0
-300 299 40 0
300 -299 40 0
300 299 -40 0
-301 -300 -43 0
-301 300 43 0
301 -300 43 0
301 300 -43 0
-302 -301 -46 0
-302 301 46 0
302 -301 46 0
302 301 -46 0
-303 -3 -7 0
-303 3 7 0
303 -3 7 0
303 3 -7 0
-304 -303 -8 0
-304 303 8 0
304 -303 8 0
304 303 -8 0
-305 -304 -9 0
-305 304 9 0
305 -304 9 0
305 304 -9 0
-306 -305 -19 0
-306 305 19 0
306 -305 19 0
306 305 -19 0
-307 -306 -25 0
-307 306 25 0
307 -306 25 0
307 306 -25 0
-308 -307 -37 0
-308 307 37 0
308 -307 37 0
308 307 -37 0
-309 -308 -38 0
-309 308 38 0
309 -308 38 0
309 308 -38 0
-310 -309 -40 0
-310 309 40 0
310 -309 40 0
310 309 -40 0
-311 -310 -43 0
-311 310 43 0
311 -310 43 0
311 310 -43 0
-312 -311 -44 0
-312 311 44 0
312 -311 44 0
312 311 -44 0
-313 -312 -49 0
-313 312 49 0
313 -312 49 0
313 312 -49 0
-314 -1 -2 0
-314 1 2 0
314 -1 2 0
314 1 -2 0
-315 -314 -3 0
-315 314 3 0
315 -314 3 0
315 314 -3 0
-316 -315 -4 0
-316 315 4 0
316 -315 4 0
316 315 -4 0
-317 -316 -8 0
-317 316 8 0
317 -316 8 0
317 316 -8 0
-318 -317 -14 0
-318 317 14 0
318 -317 14 0
318 317 -14 0
-319 -318 -15 0
-319 318 15 0
319 -318 15 0
319 318 -15 0
-320 -319 -20 0
-320 319 20 0
320 -319 20 0
320 319 -20 0
-321 -320 -31 0
-321 320 31 0
321 -320 31 0
321 320 -31 0
-322 -321 -39 0
-322 321 39 0
322 -321 39 0
322 321 -39 0
-323 -322 -43 0
-323 322 43 0
323 -322 43 0
323 322 -43 0
-324 -323 -50 0
-324 323 50 0
324 -323 50 0
324 323 -50 0
-325 -9 -15 0
-325 9 15 0
325 -9 15 0
325 9 -15 0
-326 -325 -16 0
-326 325 16 0
326 -325 16 0
326 325 -16 0
-327 -326 -19 0
-327 326 19 0
327 -326 19 0
327 326 -19 0
-328 -327 -32 0
-328 327 32 0
328 -327 32 0
328 327 -32 0
-329 -328 -40 0
-329 328 40 0
329 -328 40 0
329 328 -40 0
-330 -329 -44 0
-330 329 44 0
330 -329 44 0
330 329 -44 0
-331 -330 -51 0
-331 330 51 0
331 -330 51 0
331 330 -51 0
-332 -1 -2 0
-332 1 2 0
332 -1 2 0
332 1 -2 0
-333 -332 -3 0
-333 332 3 0
333 -332 3 0
333 332 -3 0
-334 -333 -9 0
-334 333 9 0
334 -333 9 0
334 333 -9 0
-335 -334 -20 0
-335 334 20 0
335 -334 20 0
335 334 -20 0
-336 -335 -26 0
-336 335 26 0
336 -335 26 0
336 335 -26 0
-337 -336 -38 0
-337 336 38 0
337 -336 38 0
337 336 -38 0
-338 -337 -43 0
-338 337 43 0
338 -337 43 0
338 337 -43 0
-339 -338 -44 0
-339 338 44 0
339 -338 44 0
339 338 -44 0
-340 -339 -52 0
-340 339 52 0
340 -339 52 0
340 339 -52 0
257 262 267 272 277 282 295 302 313 324 331 340 0
-1 341 0
-341 342 0
-2 -341 343 0
-343 344 0
-3 -343 345 0
-345 346 0
-4 -345 347 0
-347 348 0
-5 -347 0
-2 342 0
-342 349 0
-3 -342 344 0
-344 350 0
-4 -344 346 0
-346 351 0
-5 -346 348 0
-348 352 0
-6 -348 0
-3 349 0
-349 353 0
-4 -349 350 0
-350 354 0
-5 -350 351 0
-351 355 0
-6 -351 352 0
-352 356 0
-7 -352 0
-4 353 0
-353 357 0
-5 -353 354 0
-354 358 0
-6 -354 355 0
-355 359 0
-7 -355 356 0
-356 360 0
-8 -356 0
-5 357 0
-357 361 0
-6 -357 358 0
-358 362 0
-7 -358 359 0
-359 363 0
-8 -359 360 0
-360 364 0
-9 -360 0
-6 361 0
-361 365 0
-7 -361 362 0
-362 366 0
-8 -362 363 0
-363 367 0
-9 -363 364 0
-364 368 0
-10 -364 0
-7 365 0
-365 369 0
-8 -365 366 0
-366 370 0
-9 -366 367 0
-367 371 0
-10 -367 368 0
-368 372 0
-11 -368 0
-8 369 0
-369 373 0
-9 -369 370 0
-370 374 0
-10 -370 371 0
-371 375 0
-11 -371 372 0
-372 376 0
-12 -372 0
-9 373 0
-373 377 0
-10 -373 374 0
-374 378 0
-11 -374 375 0
-375 379 0
-12 -375 376 0
-376 380 0
-13 -376 0
-10 377 0
-377 381 0
-11 -377 378 0
-378 382 0
-12 -378 379 0
-379 383 0
-13 -379 380 0
-380 384 0
-14 -380 0
-11 381 0
-381 385 0
-12 -381 382 0
-382 386 0
-13 -382 383 0
-383 387 0
-14 -383 384 0
-384 388 0
-15 -384 0
-12 385 0
-385 389 0
-13 -385 386 0
-386 390 0
-14 -386 387 0
-387 391 0
-15 -387 388 0
-388 392 0
-16 -388 0
-13 389 0
-389 393 0
-14 -389 390 0
-390 394 0
-15 -390 391 0
-391 395 0
-16 -391 392 0
-392 396 0
-17 -392 0
-14 393 0
-393 397 0
-15 -393 394 0
-394 398 0
-16 -394 395 0
-395 399 0
-17 -395 396 0
-396 400 0
-18 -396 0
-15 397 0
-397 401 0
-16 -397 398 0
-398 402 0
-17 -398 399 0
-399 403 0
-18 -399 400 0
-400 404 0
-19 -400 0
-16 401 0
-401 405 0
-17 -401 402 0
-402 406 0
-18 -402 403 0
-403 407 0
-19 -403 404 0
-404 408 0
-20 -404 0
-17 405 0
-405 409 0
-18 -405 406 0
-406 410 0
-19 -406 407 0
-407 411 0
-20 -407 408 0
-408 412 0
-21 -408 0
-18 409 0
-409 413 0
-19 -409 410 0
-410 414 0
-20 -410 411 0
-411 415 0
-21 -411 412 0
-412 416 0
-22 -412 0
-19 413 0
-413 417 0
-20 -413 414 0
-414 418 0
-21 -414 415 0
-415 419 0
-22 -415 416 0
-416 420 0
-23 -416 0
-20 417 0
-417 421 0
-21 -417 418 0
-418 422 0
-22 -418 419 0
-419 423 0
-23 -419 420 0
-420 424 0
-24 -420 0
-21 421 0
-421 425 0
-22 -421 422 0
-422 426 0
-23 -422 423 0
-423 427 0
-24 -423 424 0
-424 428 0
-25 -424 0
-22 425 0
-425 429 0
-23 -425 426 0
-426 430 0
-24 -426 427 0
-427 431 0
-25 -427 428 0
-428 432 0
-26 -428 0
-23 429 0
-429 433 0
-24 -429 430 0
-430 434 0
-25 -430 431 0
-431 435 0
-26 -431 432 0
-432 436 0
-27 -432 0
-24 433 0
-433 437 0
-25 -433 434 0
-434 438 0
-26 -434 435 0
-435 439 0
-27 -435 436 0
-436 440 0
-28 -436 0
-25 437 0
-437 441 0
-26 -437 438 0
-438 442 0
-27 -438 439 0
-439 443 0
-28 -439 440 0
-440 444 0
-29 -440 0
-26 441 0
-441 445 0
-27 -441 442 0
-442 446 0
-28 -442 443 0
-443 447 0
-29 -443 444 0
-444 448 0
-30 -444 0
-27 445 0
-445 449 0
-28 -445 446 0
-446 450 0
-29 -446 447 0
-447 451 0
-30 -447 448 0
-448 452 0
-31 -448 0
-28 449 0
-449 453 0
-29 -449 450 0
-450 454 0
-30 -450 451 0
-451 455 0
-31 -451 452 0
-452 456 0
-32 -452 0
-29 453 0
-453 457 0
-30 -453 454 0
-454 458 0
-31 -454 455 0
-455 459 0
-32 -455 456 0
-456 460 0
-33 -456 0
-30 457 0
-457 461 0
-31 -457 458 0
-458 462 0
-32 -458 459 0
-459 463 0
-33 -459 460 0
-460 464 0
-34 -460 0
-31 461 0
-461 465 0
-32 -461 462 0
-462 466 0
-33 -462 463 0
-463 467 0
-34 -463 464 0
-464 468 0
-35 -464 0
-32 465 0
-465 469 0
-33 -465 466 0
-466 470 0
-34 -466 467 0
-467 471 0
-35 -467 468 0
-468 472 0
-36 -468 0
-33 469 0
-469 473 0
-34 -469 470 0
-470 474 0
-35 -470 471 0
-471 475 0
-36 -471 472 0
-472 476 0
-37 -472 0
-34 473 0
-473 477 0
-35 -473 474 0
-474 478 0
-36 -474 475 0
-475 479 0
-37 -475 476 0
-476 480 0
-38 -476 0
-35 477 0
-477 481 0
-36 -477 478 0
-478 482 0
-37 -478 479 0
-479 483 0
-38 -479 480 0
-480 484 0
-39 -480 0
-36 481 0
-481 485 0
-37 -481 482 0
-482 486 0
-38 -482 483 0
-483 487 0
-39 -483 484 0
-484 488 0
-40 -484 0
-37 485 0
-485 489 0
-38 -485 486 0
-486 490 0
-39 -486 487 0
-487 491 0
-40 -487 488 0
-488 492 0
-41 -488 0
-38 489 0
-489 493 0
-39 -489 490 0
-490 494 0
-40 -490 491 0
-491 495 0
-41 -491 492 0
-492 496 0
-42 -492 0
-39 493 0
-493 497 0
-40 -493 494 0
-494 498 0
-41 -494 495 0
-495 499 0
-42 -495 496 0
-496 500 0
-43 -496 0
-40 497 0
-497 501 0
-41 -497 498 0
-498 502 0
-42 -498 499 0
-499 503 0
-43 -499 500 0
-500 504 0
-44 -500 0
-41 501 0
-501 505 0
-42 -501 502 0
-502 506 0
-43 -502 503 0
-503 507 0
-44 -503 504 0
-504 508 0
-45 -504 0
-42 505 0
-505 509 0
-43 -505 506 0
-506 510 0
-44 -506 507 0
-507 511 0
-45 -507 508 0
-508 512 0
-46 -508 0
-43 509 0
-509 513 0
-44 -509 510 0
-510 514 0
-45 -510 511 0
-511 515 0
-46 -511 512 0
-512 516 0
-47 -512 0
-44 513 0
-513 517 0
-45 -513 514 0
-514 518 0
-46 -514 515 0
-515 519 0
-47 -515 516 0
-516 520 0
-48 -516 0
-45 517 0
-517 521 0
-46 -517 518 0
-518 522 0
-47 -518 519 0
-519 523 0
-48 -519 520 0
-520 524 0
-49 -520 0
-46 521 0
-521 525 0
-47 -521 522 0
-522 526 0
-48 -522 523 0
-523 527 0
-49 -523 524 0
-524 528 0
-50 -524 0
-47 525 0
-525 529 0
-48 -525 526 0
-526 530 0
-49 -526 527 0
-527 531 0
-50 -527 528 0
-528 532 0
-51 -528 0
-48 529 0
-529 533 0
-49 -529 530 0
-530 534 0
-50 -530 531 0
-531 535 0
-51 -531 532 0
-532 536 0
-52 -532 0
-49 533 0
-533 537 0
-50 -533 534 0
-534 538 0
-51 -534 535 0
-535 539 0
-52 -535 536 0
-536 540 0
-53 -536 0
-50 537 0
-537 541 0
-51 -537 538 0
-538 542 0
-52 -538 539 0
-539 543 0
-53 -539 540 0
-540 544 0
-54 -540 0
-51 541 0
-541 545 0
-52 -541 542 0
-542 546 0
-53 -542 543 0
-543 547 0
-54 -543 544 0
-544 548 0
-55 -544 0
-52 545 0
-545 549 0
-53 -545 546 0
-546 550 0
-54 -546 547 0
-547 551 0
-55 -547 548 0
-548 552 0
-56 -548 0
-53 549 0
-549 553 0
-54 -549 550 0
-550 554 0
-55 -550 551 0
-551 555 0
-56 -551 552 0
-552 556 0
-57 -552 0
-54 553 0
-553 557 0
-55 -553 554 0
-554 558 0
-56 -554 555 0
-555 559 0
-57 -555 556 0
-556 560 0
-58 -556 0
-55 557 0
-557 561 0
-56 -557 558 0
-558 562 0
-57 -558 559 0
-559 563 0
-58 -559 560 0
-560 564 0
-59 -560 0
-56 561 0
-561 565 0
-57 -561 562 0
-562 566 0
-58 -562 563 0
-563 567 0
-59 -563 564 0
-564 568 0
-60 -564 0
-57 565 0
-565 569 0
-58 -565 566 0
-566 570 0
-59 -566 567 0
-567 571 0
-60 -567 568 0
-568 572 0
-61 -568 0
-58 569 0
-569 573 0
-59 -569 570 0
-570 574 0
-60 -570 571 0
-571 575 0
-61 -571 572 0
-572 576 0
-62 -572 0
-59 573 0
-573 577 0
-60 -573 574 0
-574 578 0
-61 -574 575 0
-575 579 0
-62 -575 576 0
-576 580 0
-63 -576 0
-60 577 0
-577 581 0
-61 -577 578 0
-578 582 0
-62 -578 579 0
-579 583 0
-63 -579 580 0
-580 584 0
-64 -580 0
-61 581 0
-581 585 0
-62 -581 582 0
-582 586 0
-63 -582 583 0
-583 587 0
-64 -583 584 0
-584 588 0
-65 -584 0
-62 585 0
-585 589 0
-63 -585 586 0
-586 590 0
-64 -586 587 0
-587 591 0
-65 -587 588 0
-588 592 0
-66 -588 0
-63 589 0
-589 593 0
-64 -589 590 0
-590 594 0
-65 -590 591 0
-591 595 0
-66 -591 592 0
-592 596 0
-67 -592 0
-64 593 0
-593 597 0
-65 -593 594 0
-594 598 0
-66 -594 595 0
-595 599 0
-67 -595 596 0
-596 600 0
-68 -596 0
-65 597 0
-597 601 0
-66 -597 598 0
-598 602 0
-67 -598 599 0
-599 603 0
-68 -599 600 0
-600 604 0
-69 -600 0
-66 601 0
-601 605 0
-67 -601 602 0
-602 606 0
-68 -602 603 0
-603 607 0
-69 -603 604 0
-604 608 0
-70 -604 0
-67 605 0
-605 609 0
-68 -605 606 0
-606 610 0
-69 -606 607 0
-607 611 0
-70 -607 608 0
-608 612 0
-71 -608 0
-68 609 0
-69 -609 610 0
-70 -610 611 0
-71 -611 612 0
-72 -612 0
