p cnf 411 1321
-73 -4 -7 0
-73 4 7 0
73 -4 7 0
73 4 -7 0
-74 -73 -13 0
-74 73 13 0
74 -73 13 0
74 73 -13 0
-75 -74 -38 0
-75 74 38 0
75 -74 38 0
75 74 -38 0
-76 -75 -39 0
-76 75 39 0
76 -75 39 0
76 75 -39 0
-77 -76 -55 0
-77 76 55 0
77 -76 55 0
77 76 -55 0
-77 0
-78 -5 -8 0
-78 5 8 0
78 -5 8 0
78 5 -8 0
-79 -78 -14 0
-79 78 14 0
79 -78 14 0
79 78 -14 0
-80 -79 -39 0
-80 79 39 0
80 -79 39 0
80 79 -39 0
-81 -80 -40 0
-81 80 40 0
81 -80 40 0
81 80 -40 0
-82 -81 -56 0
-82 81 56 0
82 -81 56 0
82 81 -56 0
-82 0
-83 -6 -9 0
-83 6 9 0
83 -6 9 0
83 6 -9 0
-84 -83 -15 0
-84 83 15 0
84 -83 15 0
84 83 -15 0
-85 -84 -40 0
-85 84 40 0
85 -84 40 0
85 84 -40 0
-86 -85 -41 0
-86 85 41 0
86 -85 41 0
86 85 -41 0
-87 -86 -57 0
-87 86 57 0
87 -86 57 0
87 86 -57 0
-87 0
-88 -1 -10 0
-88 1 10 0
88 -1 10 0
88 1 -10 0
-89 -88 -16 0
-89 88 16 0
89 -88 16 0
89 88 -16 0
-90 -89 -41 0
-90 89 41 0
90 -89 41 0
90 89 -41 0
-91 -90 -42 0
-91 90 42 0
91 -90 42 0
91 90 -42 0
-92 -91 -58 0
-92 91 58 0
92 -91 58 0
92 91 -58 0
-92 0
-93 -2 -11 0
-93 2 11 0
93 -2 11 0
93 2 -11 0
-94 -93 -17 0
-94 93 17 0
94 -93 17 0
94 93 -17 0
-95 -94 -37 0
-95 94 37 0
95 -94 37 0
95 94 -37 0
-96 -95 -42 0
-96 95 42 0
96 -95 42 0
96 95 -42 0
-97 -96 -59 0
-97 96 59 0
97 -96 59 0
97 96 -59 0
-97 0
-98 -3 -12 0
-98 3 12 0
98 -3 12 0
98 3 -12 0
-99 -98 -18 0
-99 98 18 0
99 -98 18 0
99 98 -18 0
-100 -99 -37 0
-100 99 37 0
100 -99 37 0
100 99 -37 0
-101 -100 -38 0
-101 100 38 0
101 -100 38 0
101 100 -38 0
-102 -101 -60 0
-102 101 60 0
102 -101 60 0
102 101 -60 0
-102 0
-103 -10 -13 0
-103 10 13 0
103 -10 13 0
103 10 -13 0
-104 -103 -19 0
-104 103 19 0
104 -103 19 0
104 103 -19 0
-105 -104 -44 0
-105 104 44 0
105 -104 44 0
105 104 -44 0
-106 -105 -45 0
-106 105 45 0
106 -105 45 0
106 105 -45 0
-107 -106 -61 0
-107 106 61 0
107 -106 61 0
107 106 -61 0
-107 0
-108 -11 -14 0
-108 11 14 0
108 -11 14 0
108 11 -14 0
-109 -108 -20 0
-109 108 20 0
109 -108 20 0
109 108 -20 0
-110 -109 -45 0
-110 109 45 0
110 -109 45 0
110 109 -45 0
-111 -110 -46 0
-111 110 46 0
111 -110 46 0
111 110 -46 0
-112 -111 -62 0
-112 111 62 0
112 -111 62 0
112 111 -62 0
-112 0
-113 -12 -15 0
-113 12 15 0
113 -12 15 0
113 12 -15 0
-114 -113 -21 0
-114 113 21 0
114 -113 21 0
114 113 -21 0
-115 -114 -46 0
-115 114 46 0
115 -114 46 0
115 114 -46 0
-116 -115 -47 0
-116 115 47 0
116 -115 47 0
116 115 -47 0
-117 -116 -63 0
-117 116 63 0
117 -116 63 0
117 116 -63 0
-117 0
-118 -7 -16 0
-118 7 16 0
118 -7 16 0
118 7 -16 0
-119 -118 -22 0
-119 118 22 0
119 -118 22 0
119 118 -22 0
-120 -119 -47 0
-120 119 47 0
120 -119 47 0
120 119 -47 0
-121 -120 -48 0
-121 120 48 0
121 -120 48 0
121 120 -48 0
-122 -121 -64 0
-122 121 64 0
122 -121 64 0
122 121 -64 0
-122 0
-123 -8 -17 0
-123 8 17 0
123 -8 17 0
123 8 -17 0
-124 -123 -23 0
-124 123 23 0
124 -123 23 0
124 123 -23 0
-125 -124 -43 0
-125 124 43 0
125 -124 43 0
125 124 -43 0
-126 -125 -48 0
-126 125 48 0
126 -125 48 0
126 125 -48 0
-127 -126 -65 0
-127 126 65 0
127 -126 65 0
127 126 -65 0
-127 0
-128 -9 -18 0
-128 9 18 0
128 -9 18 0
128 9 -18 0
-129 -128 -24 0
-129 128 24 0
129 -128 24 0
129 128 -24 0
-130 -129 -43 0
-130 129 43 0
130 -129 43 0
130 129 -43 0
-131 -130 -44 0
-131 130 44 0
131 -130 44 0
131 130 -44 0
-132 -131 -66 0
-132 131 66 0
132 -131 66 0
132 131 -66 0
-132 0
-133 -16 -19 0
-133 16 19 0
133 -16 19 0
133 16 -19 0
-134 -133 -25 0
-134 133 25 0
134 -133 25 0
134 133 -25 0
-135 -134 -50 0
-135 134 50 0
135 -134 50 0
135 134 -50 0
-136 -135 -51 0
-136 135 51 0
136 -135 51 0
136 135 -51 0
-137 -136 -67 0
-137 136 67 0
137 -136 67 0
137 136 -67 0
-137 0
-138 -17 -20 0
-138 17 20 0
138 -17 20 0
138 17 -20 0
-139 -138 -26 0
-139 138 26 0
139 -138 26 0
139 138 -26 0
-140 -139 -51 0
-140 139 51 0
140 -139 51 0
140 139 -51 0
-141 -140 -52 0
-141 140 52 0
141 -140 52 0
141 140 -52 0
-142 -141 -68 0
-142 141 68 0
142 -141 68 0
142 141 -68 0
-142 0
-143 -18 -21 0
-143 18 21 0
143 -18 21 0
143 18 -21 0
-144 -143 -27 0
-144 143 27 0
144 -143 27 0
144 143 -27 0
-145 -144 -52 0
-145 144 52 0
145 -144 52 0
145 144 -52 0
-146 -145 -53 0
-146 145 53 0
146 -145 53 0
146 145 -53 0
-147 -146 -69 0
-147 146 69 0
147 -146 69 0
147 146 -69 0
-147 0
-148 -13 -22 0
-148 13 22 0
148 -13 22 0
148 13 -22 0
-149 -148 -28 0
-149 148 28 0
149 -148 28 0
149 148 -28 0
-150 -149 -53 0
-150 149 53 0
150 -149 53 0
150 149 -53 0
-151 -150 -54 0
-151 150 54 0
151 -150 54 0
151 150 -54 0
-152 -151 -70 0
-152 151 70 0
152 -151 70 0
152 151 -70 0
-152 0
-153 -14 -23 0
-153 14 23 0
153 -14 23 0
153 14 -23 0
-154 -153 -29 0
-154 153 29 0
154 -153 29 0
154 153 -29 0
-155 -154 -49 0
-155 154 49 0
155 -154 49 0
155 154 -49 0
-156 -155 -54 0
-156 155 54 0
156 -155 54 0
156 155 -54 0
-157 -156 -71 0
-157 156 71 0
157 -156 71 0
157 156 -71 0
-157 0
-158 -15 -24 0
-158 15 24 0
158 -15 24 0
158 15 -24 0
-159 -158 -30 0
-159 158 30 0
159 -158 30 0
159 158 -30 0
-160 -159 -49 0
-160 159 49 0
160 -159 49 0
160 159 -49 0
-161 -160 -50 0
-161 160 50 0
161 -160 50 0
161 160 -50 0
-162 -161 -72 0
-162 161 72 0
162 -161 72 0
162 161 -72 0
-162 0
-163 -22 -25 0
-163 22 25 0
163 -22 25 0
163 22 -25 0
-164 -163 -31 0
-164 163 31 0
164 -163 31 0
164 163 -31 0
-165 -164 -37 0
-165 164 37 0
165 -164 37 0
165 164 -37 0
-166 -165 -56 0
-166 165 56 0
166 -165 56 0
166 165 -56 0
-167 -166 -57 0
-167 166 57 0
167 -166 57 0
167 166 -57 0
-167 0
-168 -23 -26 0
-168 23 26 0
168 -23 26 0
168 23 -26 0
-169 -168 -32 0
-169 168 32 0
169 -168 32 0
169 168 -32 0
-170 -169 -38 0
-170 169 38 0
170 -169 38 0
170 169 -38 0
-171 -170 -57 0
-171 170 57 0
171 -170 57 0
171 170 -57 0
-172 -171 -58 0
-172 171 58 0
172 -171 58 0
172 171 -58 0
-172 0
-173 -24 -27 0
-173 24 27 0
173 -24 27 0
173 24 -27 0
-174 -173 -33 0
-174 173 33 0
174 -173 33 0
174 173 -33 0
-175 -174 -39 0
-175 174 39 0
175 -174 39 0
175 174 -39 0
-176 -175 -58 0
-176 175 58 0
176 -175 58 0
176 175 -58 0
-177 -176 -59 0
-177 176 59 0
177 -176 59 0
177 176 -59 0
-177 0
-178 -19 -28 0
-178 19 28 0
178 -19 28 0
178 19 -28 0
-179 -178 -34 0
-179 178 34 0
179 -178 34 0
179 178 -34 0
-180 -179 -40 0
-180 179 40 0
180 -179 40 0
180 179 -40 0
-181 -180 -59 0
-181 180 59 0
181 -180 59 0
181 180 -59 0
-182 -181 -60 0
-182 181 60 0
182 -181 60 0
182 181 -60 0
-182 0
-183 -20 -29 0
-183 20 29 0
183 -20 29 0
183 20 -29 0
-184 -183 -35 0
-184 183 35 0
184 -183 35 0
184 183 -35 0
-185 -184 -41 0
-185 184 41 0
185 -184 41 0
185 184 -41 0
-186 -185 -55 0
-186 185 55 0
186 -185 55 0
186 185 -55 0
-187 -186 -60 0
-187 186 60 0
187 -186 60 0
187 186 -60 0
-187 0
-188 -21 -30 0
-188 21 30 0
188 -21 30 0
188 21 -30 0
-189 -188 -36 0
-189 188 36 0
189 -188 36 0
189 188 -36 0
-190 -189 -42 0
-190 189 42 0
190 -189 42 0
190 189 -42 0
-191 -190 -55 0
-191 190 55 0
191 -190 55 0
191 190 -55 0
-192 -191 -56 0
-192 191 56 0
192 -191 56 0
192 191 -56 0
-192 0
-193 -1 -28 0
-193 1 28 0
193 -1 28 0
193 1 -28 0
-194 -193 -31 0
-194 193 31 0
194 -193 31 0
194 193 -31 0
-195 -194 -43 0
-195 194 43 0
195 -194 43 0
195 194 -43 0
-196 -195 -62 0
-196 195 62 0
196 -195 62 0
196 195 -62 0
-197 -196 -63 0
-197 196 63 0
197 -196 63 0
197 196 -63 0
-197 0
-198 -2 -29 0
-198 2 29 0
198 -2 29 0
198 2 -29 0
-199 -198 -32 0
-199 198 32 0
199 -198 32 0
199 198 -32 0
-200 -199 -44 0
-200 199 44 0
200 -199 44 0
200 199 -44 0
-201 -200 -63 0
-201 200 63 0
201 -200 63 0
201 200 -63 0
-202 -201 -64 0
-202 201 64 0
202 -201 64 0
202 201 -64 0
-202 0
-203 -3 -30 0
-203 3 30 0
203 -3 30 0
203 3 -30 0
-204 -203 -33 0
-204 203 33 0
204 -203 33 0
204 203 -33 0
-205 -204 -45 0
-205 204 45 0
205 -204 45 0
205 204 -45 0
-206 -205 -64 0
-206 205 64 0
206 -205 64 0
206 205 -64 0
-207 -206 -65 0
-207 206 65 0
207 -206 65 0
207 206 -65 0
-207 0
-208 -4 -25 0
-208 4 25 0
208 -4 25 0
208 4 -25 0
-209 -208 -34 0
-209 208 34 0
209 -208 34 0
209 208 -34 0
-210 -209 -46 0
-210 209 46 0
210 -209 46 0
210 209 -46 0
-211 -210 -65 0
-211 210 65 0
211 -210 65 0
211 210 -65 0
-212 -211 -66 0
-212 211 66 0
212 -211 66 0
212 211 -66 0
-212 0
-213 -5 -26 0
-213 5 26 0
213 -5 26 0
213 5 -26 0
-214 -213 -35 0
-214 213 35 0
214 -213 35 0
214 213 -35 0
-215 -214 -47 0
-215 214 47 0
215 -214 47 0
215 214 -47 0
-216 -215 -61 0
-216 215 61 0
216 -215 61 0
216 215 -61 0
-217 -216 -66 0
-217 216 66 0
217 -216 66 0
217 216 -66 0
-217 0
-218 -6 -27 0
-218 6 27 0
218 -6 27 0
218 6 -27 0
-219 -218 -36 0
-219 218 36 0
219 -218 36 0
219 218 -36 0
-220 -219 -48 0
-220 219 48 0
220 -219 48 0
220 219 -48 0
-221 -220 -61 0
-221 220 61 0
221 -220 61 0
221 220 -61 0
-222 -221 -62 0
-222 221 62 0
222 -221 62 0
222 221 -62 0
-222 0
-223 -1 -7 0
-223 1 7 0
223 -1 7 0
223 1 -7 0
-224 -223 -34 0
-224 223 34 0
224 -223 34 0
224 223 -34 0
-225 -224 -49 0
-225 224 49 0
225 -224 49 0
225 224 -49 0
-226 -225 -68 0
-226 225 68 0
226 -225 68 0
226 225 -68 0
-227 -226 -69 0
-227 226 69 0
227 -226 69 0
227 226 -69 0
-227 0
-228 -2 -8 0
-228 2 8 0
228 -2 8 0
228 2 -8 0
-229 -228 -35 0
-229 228 35 0
229 -228 35 0
229 228 -35 0
-230 -229 -50 0
-230 229 50 0
230 -229 50 0
230 229 -50 0
-231 -230 -69 0
-231 230 69 0
231 -230 69 0
231 230 -69 0
-232 -231 -70 0
-232 231 70 0
232 -231 70 0
232 231 -70 0
-232 0
-233 -3 -9 0
-233 3 9 0
233 -3 9 0
233 3 -9 0
-234 -233 -36 0
-234 233 36 0
234 -233 36 0
234 233 -36 0
-235 -234 -51 0
-235 234 51 0
235 -234 51 0
235 234 -51 0
-236 -235 -70 0
-236 235 70 0
236 -235 70 0
236 235 -70 0
-237 -236 -71 0
-237 236 71 0
237 -236 71 0
237 236 -71 0
-237 0
-238 -4 -10 0
-238 4 10 0
238 -4 10 0
238 4 -10 0
-239 -238 -31 0
-239 238 31 0
239 -238 31 0
239 238 -31 0
-240 -239 -52 0
-240 239 52 0
240 -239 52 0
240 239 -52 0
-241 -240 -71 0
-241 240 71 0
241 -240 71 0
241 240 -71 0
-242 -241 -72 0
-242 241 72 0
242 -241 72 0
242 241 -72 0
-242 0
-243 -5 -11 0
-243 5 11 0
243 -5 11 0
243 5 -11 0
-244 -243 -32 0
-244 243 32 0
244 -243 32 0
244 243 -32 0
-245 -244 -53 0
-245 244 53 0
245 -244 53 0
245 244 -53 0
-246 -245 -67 0
-246 245 67 0
246 -245 67 0
246 245 -67 0
-247 -246 -72 0
-247 246 72 0
247 -246 72 0
247 246 -72 0
-247 0
-248 -6 -12 0
-248 6 12 0
248 -6 12 0
248 6 -12 0
-249 -248 -33 0
-249 248 33 0
249 -248 33 0
249 248 -33 0
-250 -249 -54 0
-250 249 54 0
250 -249 54 0
250 249 -54 0
-251 -250 -67 0
-251 250 67 0
251 -250 67 0
251 250 -67 0
-252 -251 -68 0
-252 251 68 0
252 -251 68 0
252 251 -68 0
-252 0
-253 -7 -8 0
-253 7 8 0
253 -7 8 0
253 7 -8 0
-254 -253 -9 0
-254 253 9 0
254 -253 9 0
254 253 -9 0
-255 -254 -12 0
-255 254 12 0
255 -254 12 0
255 254 -12 0
-256 -255 -25 0
-256 255 25 0
256 -255 25 0
256 255 -25 0
-257 -256 -29 0
-257 256 29 0
257 -256 29 0
257 256 -29 0
-258 -7 -8 0
-258 7 8 0
258 -7 8 0
258 7 -8 0
-259 -258 -9 0
-259 258 9 0
259 -258 9 0
259 258 -9 0
-260 -259 -10 0
-260 259 10 0
260 -259 10 0
260 259 -10 0
-261 -260 -26 0
-261 260 26 0
261 -260 26 0
261 260 -26 0
-262 -261 -30 0
-262 261 30 0
262 -261 30 0
262 261 -30 0
-263 -14 -15 0
-263 14 15 0
263 -14 15 0
263 14 -15 0
-264 -263 -16 0
-264 263 16 0
264 -263 16 0
264 263 -16 0
-265 -264 -17 0
-265 264 17 0
265 -264 17 0
265 264 -17 0
-266 -265 -31 0
-266 265 31 0
266 -265 31 0
266 265 -31 0
-267 -266 -33 0
-267 266 33 0
267 -266 33 0
267 266 -33 0
-268 -15 -16 0
-268 15 16 0
268 -15 16 0
268 15 -16 0
-269 -268 -17 0
-269 268 17 0
269 -268 17 0
269 268 -17 0
-270 -269 -18 0
-270 269 18 0
270 -269 18 0
270 269 -18 0
-271 -270 -32 0
-271 270 32 0
271 -270 32 0
271 270 -32 0
-272 -271 -34 0
-272 271 34 0
272 -271 34 0
272 271 -34 0
-273 -13 -14 0
-273 13 14 0
273 -13 14 0
273 13 -14 0
-274 -273 -15 0
-274 273 15 0
274 -273 15 0
274 273 -15 0
-275 -274 -18 0
-275 274 18 0
275 -274 18 0
275 274 -18 0
-276 -275 -31 0
-276 275 31 0
276 -275 31 0
276 275 -31 0
-277 -276 -35 0
-277 276 35 0
277 -276 35 0
277 276 -35 0
-278 -13 -14 0
-278 13 14 0
278 -13 14 0
278 13 -14 0
-279 -278 -15 0
-279 278 15 0
279 -278 15 0
279 278 -15 0
-280 -279 -16 0
-280 279 16 0
280 -279 16 0
280 279 -16 0
-281 -280 -32 0
-281 280 32 0
281 -280 32 0
281 280 -32 0
-282 -281 -36 0
-282 281 36 0
282 -281 36 0
282 281 -36 0
-283 -1 -2 0
-283 1 2 0
283 -1 2 0
283 1 -2 0
-284 -283 -4 0
-284 283 4 0
284 -283 4 0
284 283 -4 0
-285 -284 -8 0
-285 284 8 0
285 -284 8 0
285 284 -8 0
-286 -285 -10 0
-286 285 10 0
286 -285 10 0
286 285 -10 0
-287 -286 -20 0
-287 286 20 0
287 -286 20 0
287 286 -20 0
-288 -287 -25 0
-288 287 25 0
288 -287 25 0
288 287 -25 0
-289 -288 -26 0
-289 288 26 0
289 -288 26 0
289 288 -26 0
-290 -289 -37 0
-290 289 37 0
290 -289 37 0
290 289 -37 0
-291 -290 -38 0
-291 290 38 0
291 -290 38 0
291 290 -38 0
-292 -291 -39 0
-292 291 39 0
292 -291 39 0
292 291 -39 0
-293 -292 -43 0
-293 292 43 0
293 -292 43 0
293 292 -43 0
-294 -293 -44 0
-294 293 44 0
294 -293 44 0
294 293 -44 0
-295 -294 -45 0
-295 294 45 0
295 -294 45 0
295 294 -45 0
-296 -1 -2 0
-296 1 2 0
296 -1 2 0
296 1 -2 0
-297 -296 -19 0
-297 296 19 0
297 -296 19 0
297 296 -19 0
-298 -297 -20 0
-298 297 20 0
298 -297 20 0
298 297 -20 0
-299 -298 -37 0
-299 298 37 0
299 -298 37 0
299 298 -37 0
-300 -299 -40 0
-300 299 40 0
300 -299 40 0
300 299 -40 0
-301 -300 -43 0
-301 300 43 0
301 -300 43 0
301 300 -43 0
-302 -301 -46 0
-302 301 46 0
302 -301 46 0
302 301 -46 0
-303 -3 -7 0
-303 3 7 0
303 -3 7 0
303 3 -7 0
-304 -303 -8 0
-304 303 8 0
304 -303 8 0
304 303 -8 0
-305 -304 -9 0
-305 304 9 0
305 -304 9 0
305 304 -9 0
-306 -305 -19 0
-306 305 19 0
306 -305 19 0
306 305 -19 0
-307 -306 -25 0
-307 306 25 0
307 -306 25 0
307 306 -25 0
-308 -307 -37 0
-308 307 37 0
308 -307 37 0
308 307 -37 0
-309 -308 -38 0
-309 308 38 0
309 -308 38 0
309 308 -38 0
-310 -309 -40 0
-310 309 40 0
310 -309 40 0
310 309 -40 0
-311 -310 -43 0
-311 310 43 0
311 -310 43 0
311 310 -43 0
-312 -311 -44 0
-312 311 44 0
312 -311 44 0
312 311 -44 0
-313 -312 -49 0
-313 312 49 0
313 -312 49 0
313 312 -49 0
-314 -1 -2 0
-314 1 2 0
314 -1 2 0
314 1 -2 0
-315 -314 -3 0
-315 314 3 0
315 -314 3 0
315 314 -3 0
-316 -315 -4 0
-316 315 4 0
316 -315 4 0
316 315 -4 0
-317 -316 -8 0
-317 316 8 0
317 -316 8 0
317 316 -8 0
-318 -317 -14 0
-318 317 14 0
318 -317 14 0
318 317 -14 0
-319 -318 -15 0
-319 318 15 0
319 -318 15 0
319 318 -15 0
-320 -319 -20 0
-320 319 20 0
320 -319 20 0
320 319 -20 0
-321 -320 -31 0
-321 320 31 0
321 -320 31 0
321 320 -31 0
-322 -321 -39 0
-322 321 39 0
322 -321 39 0
322 321 -39 0
-323 -322 -43 0
-323 322 43 0
323 -322 43 0
323 322 -43 0
-324 -323 -50 0
-324 323 50 0
324 -323 50 0
324 323 -50 0
-325 -9 -15 0
-325 9 15 0
325 -9 15 0
325 9 -15 0
-326 -325 -16 0
-326 325 16 0
326 -325 16 0
326 325 -16 0
-327 -326 -19 0
-327 326 19 0
327 -326 19 0
327 326 -19 0
-328 -327 -32 0
-328 327 32 0
328 -327 32 0
328 327 -32 0
-329 -328 -40 0
-329 328 40 0
329 -328 40 0
329 328 -40 0
-330 -329 -44 0
-330 329 44 0
330 -329 44 0
330 329 -44 0
-331 -330 -51 0
-331 330 51 0
331 -330 51 0
331 330 -51 0
-332 -1 -2 0
-332 1 2 0
332 -1 2 0
332 1 -2 0
-333 -332 -3 0
-333 332 3 0
333 -332 3 0
333 332 -3 0
-334 -333 -9 0
-334 333 9 0
334 -333 9 0
334 333 -9 0
-335 -334 -20 0
-335 334 20 0
335 -334 20 0
335 334 -20 0
-336 -335 -26 0
-336 335 26 0
336 -335 26 0
336 335 -26 0
-337 -336 -38 0
-337 336 38 0
337 -336 38 0
337 336 -38 0
-338 -337 -43 0
-338 337 43 0
338 -337 43 0
338 337 -43 0
-339 -338 -44 0
-339 338 44 0
339 -338 44 0
339 338 -44 0
-340 -339 -52 0
-340 339 52 0
340 -339 52 0
340 339 -52 0
257 262 267 272 277 282 295 302 313 324 331 340 0
-1 341 0
-341 342 0
-2 -341 0
-2 342 0
-342 343 0
-3 -342 0
-3 343 0
-343 344 0
-4 -343 0
-4 344 0
-344 345 0
-5 -344 0
-5 345 0
-345 346 0
-6 -345 0
-6 346 0
-346 347 0
-7 -346 0
-7 347 0
-347 348 0
-8 -347 0
-8 348 0
-348 349 0
-9 -348 0
-9 349 0
-349 350 0
-10 -349 0
-10 350 0
-350 351 0
-11 -350 0
-11 351 0
-351 352 0
-12 -351 0
-12 352 0
-352 353 0
-13 -352 0
-13 353 0
-353 354 0
-14 -353 0
-14 354 0
-354 355 0
-15 -354 0
-15 355 0
-355 356 0
-16 -355 0
-16 356 0
-356 357 0
-17 -356 0
-17 357 0
-357 358 0
-18 -357 0
-18 358 0
-358 359 0
-19 -358 0
-19 359 0
-359 360 0
-20 -359 0
-20 360 0
-360 361 0
-21 -360 0
-21 361 0
-361 362 0
-22 -361 0
-22 362 0
-362 363 0
-23 -362 0
-23 363 0
-363 364 0
-24 -363 0
-24 364 0
-364 365 0
-25 -364 0
-25 365 0
-365 366 0
-26 -365 0
-26 366 0
-366 367 0
-27 -366 0
-27 367 0
-367 368 0
-28 -367 0
-28 368 0
-368 369 0
-29 -368 0
-29 369 0
-369 370 0
-30 -369 0
-30 370 0
-370 371 0
-31 -370 0
-31 371 0
-371 372 0
-32 -371 0
-32 372 0
-372 373 0
-33 -372 0
-33 373 0
-373 374 0
-34 -373 0
-34 374 0
-374 375 0
-35 -374 0
-35 375 0
-375 376 0
-36 -375 0
-36 376 0
-376 377 0
-37 -376 0
-37 377 0
-377 378 0
-38 -377 0
-38 378 0
-378 379 0
-39 -378 0
-39 379 0
-379 380 0
-40 -379 0
-40 380 0
-380 381 0
-41 -380 0
-41 381 0
-381 382 0
-42 -381 0
-42 382 0
-382 383 0
-43 -382 0
-43 383 0
-383 384 0
-44 -383 0
-44 384 0
-384 385 0
-45 -384 0
-45 385 0
-385 386 0
-46 -385 0
-46 386 0
-386 387 0
-47 -386 0
-47 387 0
-387 388 0
-48 -387 0
-48 388 0
-388 389 0
-49 -388 0
-49 389 0
-389 390 0
-50 -389 0
-50 390 0
-390 391 0
-51 -390 0
-51 391 0
-391 392 0
-52 -391 0
-52 392 0
-392 393 0
-53 -392 0
-53 393 0
-393 394 0
-54 -393 0
-54 394 0
-394 395 0
-55 -394 0
-55 395 0
-395 396 0
-56 -395 0
-56 396 0
-396 397 0
-57 -396 0
-57 397 0
-397 398 0
-58 -397 0
-58 398 0
-398 399 0
-59 -398 0
-59 399 0
-399 400 0
-60 -399 0
-60 400 0
-400 401 0
-61 -400 0
-61 401 0
-401 402 0
-62 -401 0
-62 402 0
-402 403 0
-63 -402 0
-63 403 0
-403 404 0
-64 -403 0
-64 404 0
-404 405 0
-65 -404 0
-65 405 0
-405 406 0
-66 -405 0
-66 406 0
-406 407 0
-67 -406 0
-67 407 0
-407 408 0
-68 -407 0
-68 408 0
-408 409 0
-69 -408 0
-69 409 0
-409 410 0
-70 -409 0
-70 410 0
-410 411 0
-71 -410 0
-71 411 0
-72 -411 0
