p cnf 547 1589
-73 -4 -7 0
-73 4 7 0
73 -4 7 0
73 4 -7 0
-74 -73 -13 0
-74 73 13 0
74 -73 13 0
74 73 -13 0
-75 -74 -38 0
-75 74 38 0
75 -74 38 0
75 74 -38 0
-76 -75 -39 0
-76 75 39 0
76 -75 39 0
76 75 -39 0
-77 -76 -55 0
-77 76 55 0
77 -76 55 0
77 76 -55 0
-77 0
-78 -5 -8 0
-78 5 8 0
78 -5 8 0
78 5 -8 0
-79 -78 -14 0
-79 78 14 0
79 -78 14 0
79 78 -14 0
-80 -79 -39 0
-80 79 39 0
80 -79 39 0
80 79 -39 0
-81 -80 -40 0
-81 80 40 0
81 -80 40 0
81 80 -40 0
-82 -81 -56 0
-82 81 56 0
82 -81 56 0
82 81 -56 0
-82 0
-83 -6 -9 0
-83 6 9 0
83 -6 9 0
83 6 -9 0
-84 -83 -15 0
-84 83 15 0
84 -83 15 0
84 83 -15 0
-85 -84 -40 0
-85 84 40 0
85 -84 40 0
85 84 -40 0
-86 -85 -41 0
-86 85 41 0
86 -85 41 0
86 85 -41 0
-87 -86 -57 0
-87 86 57 0
87 -86 57 0
87 86 -57 0
-87 0
-88 -1 -10 0
-88 1 10 0
88 -1 10 0
88 1 -10 0
-89 -88 -16 0
-89 88 16 0
89 -88 16 0
89 88 -16 0
-90 -89 -41 0
-90 89 41 0
90 -89 41 0
90 89 -41 0
-91 -90 -42 0
-91 90 42 0
91 -90 42 0
91 90 -42 0
-92 -91 -58 0
-92 91 58 0
92 -91 58 0
92 91 -58 0
-92 0
-93 -2 -11 0
-93 2 11 0
93 -2 11 0
93 2 -11 0
-94 -93 -17 0
-94 93 17 0
94 -93 17 0
94 93 -17 0
-95 -94 -37 0
-95 94 37 0
95 -94 37 0
95 94 -37 0
-96 -95 -42 0
-96 95 42 0
96 -95 42 0
96 95 -42 0
-97 -96 -59 0
-97 96 59 0
97 -96 59 0
97 96 -59 0
-97 0
-98 -3 -12 0
-98 3 12 0
98 -3 12 0
98 3 -12 0
-99 -98 -18 0
-99 98 18 0
99 -98 18 0
99 98 -18 0
-100 -99 -37 0
-100 99 37 0
100 -99 37 0
100 99 -37 0
-101 -100 -38 0
-101 100 38 0
101 -100 38 0
101 100 -38 0
-102 -101 -60 0
-102 101 60 0
102 -101 60 0
102 101 -60 0
-102 0
-103 -10 -13 0
-103 10 13 0
103 -10 13 0
103 10 -13 0
-104 -103 -19 0
-104 103 19 0
104 -103 19 0
104 103 -19 0
-105 -104 -44 0
-105 104 44 0
105 -104 44 0
105 104 -44 0
-106 -105 -45 0
-106 105 45 0
106 -105 45 0
106 105 -45 0
-107 -106 -61 0
-107 106 61 0
107 -106 61 0
107 106 -61 0
-107 0
-108 -11 -14 0
-108 11 14 0
108 -11 14 0
108 11 -14 0
-109 -108 -20 0
-109 108 20 0
109 -108 20 0
109 108 -20 0
-110 -109 -45 0
-110 109 45 0
110 -109 45 0
110 109 -45 0
-111 -110 -46 0
-111 110 46 0
111 -110 46 0
111 110 -46 0
-112 -111 -62 0
-112 111 62 0
112 -111 62 0
112 111 -62 0
-112 0
-113 -12 -15 0
-113 12 15 0
113 -12 15 0
113 12 -15 0
-114 -113 -21 0
-114 113 21 0
114 -113 21 0
114 113 -21 0
-115 -114 -46 0
-115 114 46 0
115 -114 46 0
115 114 -46 0
-116 -115 -47 0
-116 115 47 0
116 -115 47 0
116 115 -47 0
-117 -116 -63 0
-117 116 63 0
117 -116 63 0
117 116 -63 0
-117 0
-118 -7 -16 0
-118 7 16 0
118 -7 16 0
118 7 -16 0
-119 -118 -22 0
-119 118 22 0
119 -118 22 0
119 118 -22 0
-120 -119 -47 0
-120 119 47 0
120 -119 47 0
120 119 -47 0
-121 -120 -48 0
-121 120 48 0
121 -120 48 0
121 120 -48 0
-122 -121 -64 0
-122 121 64 0
122 -121 64 0
122 121 -64 0
-122 0
-123 -8 -17 0
-123 8 17 0
123 -8 17 0
123 8 -17 0
-124 -123 -23 0
-124 123 23 0
124 -123 23 0
124 123 -23 0
-125 -124 -43 0
-125 124 43 0
125 -124 43 0
125 124 -43 0
-126 -125 -48 0
-126 125 48 0
126 -125 48 0
126 125 -48 0
-127 -126 -65 0
-127 126 65 0
127 -126 65 0
127 126 -65 0
-127 0
-128 -9 -18 0
-128 9 18 0
128 -9 18 0
128 9 -18 0
-129 -128 -24 0
-129 128 24 0
129 -128 24 0
129 128 -24 0
-130 -129 -43 0
-130 129 43 0
130 -129 43 0
130 129 -43 0
-131 -130 -44 0
-131 130 44 0
131 -130 44 0
131 130 -44 0
-132 -131 -66 0
-132 131 66 0
132 -131 66 0
132 131 -66 0
-132 0
-133 -16 -19 0
-133 16 19 0
133 -16 19 0
133 16 -19 0
-134 -133 -25 0
-134 133 25 0
134 -133 25 0
134 133 -25 0
-135 -134 -50 0
-135 134 50 0
135 -134 50 0
135 134 -50 0
-136 -135 -51 0
-136 135 51 0
136 -135 51 0
136 135 -51 0
-137 -136 -67 0
-137 136 67 0
137 -136 67 0
137 136 -67 0
-137 0
-138 -17 -20 0
-138 17 20 0
138 -17 20 0
138 17 -20 0
-139 -138 -26 0
-139 138 26 0
139 -138 26 0
139 138 -26 0
-140 -139 -51 0
-140 139 51 0
140 -139 51 0
140 139 -51 0
-141 -140 -52 0
-141 140 52 0
141 -140 52 0
141 140 -52 0
-142 -141 -68 0
-142 141 68 0
142 -141 68 0
142 141 -68 0
-142 0
-143 -18 -21 0
-143 18 21 0
143 -18 21 0
143 18 -21 0
-144 -143 -27 0
-144 143 27 0
144 -143 27 0
144 143 -27 0
-145 -144 -52 0
-145 144 52 0
145 -144 52 0
145 144 -52 0
-146 -145 -53 0
-146 145 53 0
146 -145 53 0
146 145 -53 0
-147 -146 -69 0
-147 146 69 0
147 -146 69 0
147 146 -69 0
-147 0
-148 -13 -22 0
-148 13 22 0
148 -13 22 0
148 13 -22 0
-149 -148 -28 0
-149 148 28 0
149 -148 28 0
149 148 -28 0
-150 -149 -53 0
-150 149 53 0
150 -149 53 0
150 149 -53 0
-151 -150 -54 0
-151 150 54 0
151 -150 54 0
151 150 -54 0
-152 -151 -70 0
-152 151 70 0
152 -151 70 0
152 151 -70 0
-152 0
-153 -14 -23 0
-153 14 23 0
153 -14 23 0
153 14 -23 0
-154 -153 -29 0
-154 153 29 0
154 -153 29 0
154 153 -29 0
-155 -154 -49 0
-155 154 49 0
155 -154 49 0
155 154 -49 0
-156 -155 -54 0
-156 155 54 0
156 -155 54 0
156 155 -54 0
-157 -156 -71 0
-157 156 71 0
157 -156 71 0
157 156 -71 0
-157 0
-158 -15 -24 0
-158 15 24 0
158 -15 24 0
158 15 -24 0
-159 -158 -30 0
-159 158 30 0
159 -158 30 0
159 158 -30 0
-160 -159 -49 0
-160 159 49 0
160 -159 49 0
160 159 -49 0
-161 -160 -50 0
-161 160 50 0
161 -160 50 0
161 160 -50 0
-162 -161 -72 0
-162 161 72 0
162 -161 72 0
162 161 -72 0
-162 0
-163 -22 -25 0
-163 22 25 0
163 -22 25 0
163 22 -25 0
-164 -163 -31 0
-164 163 31 0
164 -163 31 0
164 163 -31 0
-165 -164 -37 0
-165 164 37 0
165 -164 37 0
165 164 -37 0
-166 -165 -56 0
-166 165 56 0
166 -165 56 0
166 165 -56 0
-167 -166 -57 0
-167 166 57 0
167 -166 57 0
167 166 -57 0
-167 0
-168 -23 -26 0
-168 23 26 0
168 -23 26 0
168 23 -26 0
-169 -168 -32 0
-169 168 32 0
169 -168 32 0
169 168 -32 0
-170 -169 -38 0
-170 169 38 0
170 -169 38 0
170 169 -38 0
-171 -170 -57 0
-171 170 57 0
171 -170 57 0
171 170 -57 0
-172 -171 -58 0
-172 171 58 0
172 -171 58 0
172 171 -58 0
-172 0
-173 -24 -27 0
-173 24 27 0
173 -24 27 0
173 24 -27 0
-174 -173 -33 0
-174 173 33 0
174 -173 33 0
174 173 -33 0
-175 -174 -39 0
-175 174 39 0
175 -174 39 0
175 174 -39 0
-176 -175 -58 0
-176 175 58 0
176 -175 58 0
176 175 -58 0
-177 -176 -59 0
-177 176 59 0
177 -176 59 0
177 176 -59 0
-177 0
-178 -19 -28 0
-178 19 28 0
178 -19 28 0
178 19 -28 0
-179 -178 -34 0
-179 178 34 0
179 -178 34 0
179 178 -34 0
-180 -179 -40 0
-180 179 40 0
180 -179 40 0
180 179 -40 0
-181 -180 -59 0
-181 180 59 0
181 -180 59 0
181 180 -59 0
-182 -181 -60 0
-182 181 60 0
182 -181 60 0
182 181 -60 0
-182 0
-183 -20 -29 0
-183 20 29 0
183 -20 29 0
183 20 -29 0
-184 -183 -35 0
-184 183 35 0
184 -183 35 0
184 183 -35 0
-185 -184 -41 0
-185 184 41 0
185 -184 41 0
185 184 -41 0
-186 -185 -55 0
-186 185 55 0
186 -185 55 0
186 185 -55 0
-187 -186 -60 0
-187 186 60 0
187 -186 60 0
187 186 -60 0
-187 0
-188 -21 -30 0
-188 21 30 0
188 -21 30 0
188 21 -30 0
-189 -188 -36 0
-189 188 36 0
189 -188 36 0
189 188 -36 0
-190 -189 -42 0
-190 189 42 0
190 -189 42 0
190 189 -42 0
-191 -190 -55 0
-191 190 55 0
191 -190 55 0
191 190 -55 0
-192 -191 -56 0
-192 191 56 0
192 -191 56 0
192 191 -56 0
-192 0
-193 -1 -28 0
-193 1 28 0
193 -1 28 0
193 1 -28 0
-194 -193 -31 0
-194 193 31 0
194 -193 31 0
194 193 -31 0
-195 -194 -43 0
-195 194 43 0
195 -194 43 0
195 194 -43 0
-196 -195 -62 0
-196 195 62 0
196 -195 62 0
196 195 -62 0
-197 -196 -63 0
-197 196 63 0
197 -196 63 0
197 196 -63 0
-197 0
-198 -2 -29 0
-198 2 29 0
198 -2 29 0
198 2 -29 0
-199 -198 -32 0
-199 198 32 0
199 -198 32 0
199 198 -32 0
-200 -199 -44 0
-200 199 44 0
200 -199 44 0
200 199 -44 0
-201 -200 -63 0
-201 200 63 0
201 -200 63 0
201 200 -63 0
-202 -201 -64 0
-202 201 64 0
202 -201 64 0
202 201 -64 0
-202 0
-203 -3 -30 0
-203 3 30 0
203 -3 30 0
203 3 -30 0
-204 -203 -33 0
-204 203 33 0
204 -203 33 0
204 203 -33 0
-205 -204 -45 0
-205 204 45 0
205 -204 45 0
205 204 -45 0
-206 -205 -64 0
-206 205 64 0
206 -205 64 0
206 205 -64 0
-207 -206 -65 0
-207 206 65 0
207 -206 65 0
207 206 -65 0
-207 0
-208 -4 -25 0
-208 4 25 0
208 -4 25 0
208 4 -25 0
-209 -208 -34 0
-209 208 34 0
209 -208 34 0
209 208 -34 0
-210 -209 -46 0
-210 209 46 0
210 -209 46 0
210 209 -46 0
-211 -210 -65 0
-211 210 65 0
211 -210 65 0
211 210 -65 0
-212 -211 -66 0
-212 211 66 0
212 -211 66 0
212 211 -66 0
-212 0
-213 -5 -26 0
-213 5 26 0
213 -5 26 0
213 5 -26 0
-214 -213 -35 0
-214 213 35 0
214 -213 35 0
214 213 -35 0
-215 -214 -47 0
-215 214 47 0
215 -214 47 0
215 214 -47 0
-216 -215 -61 0
-216 215 61 0
216 -215 61 0
216 215 -61 0
-217 -216 -66 0
-217 216 66 0
217 -216 66 0
217 216 -66 0
-217 0
-218 -6 -27 0
-218 6 27 0
218 -6 27 0
218 6 -27 0
-219 -218 -36 0
-219 218 36 0
219 -218 36 0
219 218 -36 0
-220 -219 -48 0
-220 219 48 0
220 -219 48 0
220 219 -48 0
-221 -220 -61 0
-221 220 61 0
221 -220 61 0
221 220 -61 0
-222 -221 -62 0
-222 221 62 0
222 -221 62 0
222 221 -62 0
-222 0
-223 -1 -7 0
-223 1 7 0
223 -1 7 0
223 1 -7 0
-224 -223 -34 0
-224 223 34 0
224 -223 34 0
224 223 -34 0
-225 -224 -49 0
-225 224 49 0
225 -224 49 0
225 224 -49 0
-226 -225 -68 0
-226 225 68 0
226 -225 68 0
226 225 -68 0
-227 -226 -69 0
-227 226 69 0
227 -226 69 0
227 226 -69 0
-227 0
-228 -2 -8 0
-228 2 8 0
228 -2 8 0
228 2 -8 0
-229 -228 -35 0
-229 228 35 0
229 -228 35 0
229 228 -35 0
-230 -229 -50 0
-230 229 50 0
230 -229 50 0
230 229 -50 0
-231 -230 -69 0
-231 230 69 0
231 -230 69 0
231 230 -69 0
-232 -231 -70 0
-232 231 70 0
232 -231 70 0
232 231 -70 0
-232 0
-233 -3 -9 0
-233 3 9 0
233 -3 9 0
233 3 -9 0
-234 -233 -36 0
-234 233 36 0
234 -233 36 0
234 233 -36 0
-235 -234 -51 0
-235 234 51 0
235 -234 51 0
235 234 -51 0
-236 -235 -70 0
-236 235 70 0
236 -235 70 0
236 235 -70 0
-237 -236 -71 0
-237 236 71 0
237 -236 71 0
237 236 -71 0
-237 0
-238 -4 -10 0
-238 4 10 0
238 -4 10 0
238 4 -10 0
-239 -238 -31 0
-239 238 31 0
239 -238 31 0
239 238 -31 0
-240 -239 -52 0
-240 239 52 0
240 -239 52 0
240 239 -52 0
-241 -240 -71 0
-241 240 71 0
241 -240 71 0
241 240 -71 0
-242 -241 -72 0
-242 241 72 0
242 -241 72 0
242 241 -72 0
-242 0
-243 -5 -11 0
-243 5 11 0
243 -5 11 0
243 5 -11 0
-244 -243 -32 0
-244 243 32 0
244 -243 32 0
244 243 -32 0
-245 -244 -53 0
-245 244 53 0
245 -244 53 0
245 244 -53 0
-246 -245 -67 0
-246 245 67 0
246 -245 67 0
246 245 -67 0
-247 -246 -72 0
-247 246 72 0
247 -246 72 0
247 246 -72 0
-247 0
-248 -6 -12 0
-248 6 12 0
248 -6 12 0
248 6 -12 0
-249 -248 -33 0
-249 248 33 0
249 -248 33 0
249 248 -33 0
-250 -249 -54 0
-250 249 54 0
250 -249 54 0
250 249 -54 0
-251 -250 -67 0
-251 250 67 0
251 -250 67 0
251 250 -67 0
-252 -251 -68 0
-252 251 68 0
252 -251 68 0
252 251 -68 0
-252 0
-253 -7 -8 0
-253 7 8 0
253 -7 8 0
253 7 -8 0
-254 -253 -9 0
-254 253 9 0
254 -253 9 0
254 253 -9 0
-255 -254 -12 0
-255 254 12 0
255 -254 12 0
255 254 -12 0
-256 -255 -25 0
-256 255 25 0
256 -255 25 0
256 255 -25 0
-257 -256 -29 0
-257 256 29 0
257 -256 29 0
257 256 -29 0
-258 -7 -8 0
-258 7 8 0
258 -7 8 0
258 7 -8 0
-259 -258 -9 0
-259 258 9 0
259 -258 9 0
259 258 -9 0
-260 -259 -10 0
-260 259 10 0
260 -259 10 0
260 259 -10 0
-261 -260 -26 0
-261 260 26 0
261 -260 26 0
261 260 -26 0
-262 -261 -30 0
-262 261 30 0
262 -261 30 0
262 261 -30 0
-263 -14 -15 0
-263 14 15 0
263 -14 15 0
263 14 -15 0
-264 -263 -16 0
-264 263 16 0
264 -263 16 0
264 263 -16 0
-265 -264 -17 0
-265 264 17 0
265 -264 17 0
265 264 -17 0
-266 -265 -31 0
-266 265 31 0
266 -265 31 0
266 265 -31 0
-267 -266 -33 0
-267 266 33 0
267 -266 33 0
267 266 -33 0
-268 -15 -16 0
-268 15 16 0
268 -15 16 0
268 15 -16 0
-269 -268 -17 0
-269 268 17 0
269 -268 17 0
269 268 -17 0
-270 -269 -18 0
-270 269 18 0
270 -269 18 0
270 269 -18 0
-271 -270 -32 0
-271 270 32 0
271 -270 32 0
271 270 -32 0
-272 -271 -34 0
-272 271 34 0
272 -271 34 0
272 271 -34 0
-273 -13 -14 0
-273 13 14 0
273 -13 14 0
273 13 -14 0
-274 -273 -15 0
-274 273 15 0
274 -273 15 0
274 273 -15 0
-275 -274 -18 0
-275 274 18 0
275 -274 18 0
275 274 -18 0
-276 -275 -31 0
-276 275 31 0
276 -275 31 0
276 275 -31 0
-277 -276 -35 0
-277 276 35 0
277 -276 35 0
277 276 -35 0
-278 -13 -14 0
-278 13 14 0
278 -13 14 0
278 13 -14 0
-279 -278 -15 0
-279 278 15 0
279 -278 15 0
279 278 -15 0
-280 -279 -16 0
-280 279 16 0
280 -279 16 0
280 279 -16 0
-281 -280 -32 0
-281 280 32 0
281 -280 32 0
281 280 -32 0
-282 -281 -36 0
-282 281 36 0
282 -281 36 0
282 281 -36 0
-283 -1 -2 0
-283 1 2 0
283 -1 2 0
283 1 -2 0
-284 -283 -4 0
-284 283 4 0
284 -283 4 0
284 283 -4 0
-285 -284 -8 0
-285 284 8 0
285 -284 8 0
285 284 -8 0
-286 -285 -10 0
-286 285 10 0
286 -285 10 0
286 285 -10 0
-287 -286 -20 0
-287 286 20 0
287 -286 20 0
287 286 -20 0
-288 -287 -25 0
-288 287 25 0
288 -287 25 0
288 287 -25 0
-289 -288 -26 0
-289 288 26 0
289 -288 26 0
289 288 -26 0
-290 -289 -37 0
-290 289 37 0
290 -289 37 0
290 289 -37 0
-291 -290 -38 0
-291 290 38 0
291 -290 38 0
291 290 -38 0
-292 -291 -39 0
-292 291 39 0
292 -291 39 0
292 291 -39 0
-293 -292 -43 0
-293 292 43 0
293 -292 43 0
293 292 -43 0
-294 -293 -44 0
-294 293 44 0
294 -293 44 0
294 293 -44 0
-295 -294 -45 0
-295 294 45 0
295 -294 45 0
295 294 -45 0
-296 -1 -2 0
-296 1 2 0
296 -1 2 0
296 1 -2 0
-297 -296 -19 0
-297 296 19 0
297 -296 19 0
297 296 -19 0
-298 -297 -20 0
-298 297 20 0
298 -297 20 0
298 297 -20 0
-299 -298 -37 0
-299 298 37 0
299 -298 37 0
299 298 -37 0
-300 -299 -40 0
-300 299 40 0
300 -299 40 0
300 299 -40 0
-301 -300 -43 0
-301 300 43 0
301 -300 43 0
301 300 -43 0
-302 -301 -46 0
-302 301 46 0
302 -301 46 0
302 301 -46 0
-303 -3 -7 0
-303 3 7 0
303 -3 7 0
303 3 -7 0
-304 -303 -8 0
-304 303 8 0
304 -303 8 0
304 303 -8 0
-305 -304 -9 0
-305 304 9 0
305 -304 9 0
305 304 -9 0
-306 -305 -19 0
-306 305 19 0
306 -305 19 0
306 305 -19 0
-307 -306 -25 0
-307 306 25 0
307 -306 25 0
307 306 -25 0
-308 -307 -37 0
-308 307 37 0
308 -307 37 0
308 307 -37 0
-309 -308 -38 0
-309 308 38 0
309 -308 38 0
309 308 -38 0
-310 -309 -40 0
-310 309 40 0
310 -309 40 0
310 309 -40 0
-311 -310 -43 0
-311 310 43 0
311 -310 43 0
311 310 -43 0
-312 -311 -44 0
-312 311 44 0
312 -311 44 0
312 311 -44 0
-313 -312 -49 0
-313 312 49 0
313 -312 49 0
313 312 -49 0
-314 -1 -2 0
-314 1 2 0
314 -1 2 0
314 1 -2 0
-315 -314 -3 0
-315 314 3 0
315 -314 3 0
315 314 -3 0
-316 -315 -4 0
-316 315 4 0
316 -315 4 0
316 315 -4 0
-317 -316 -8 0
-317 316 8 0
317 -316 8 0
317 316 -8 0
-318 -317 -14 0
-318 317 14 0
318 -317 14 0
318 317 -14 0
-319 -318 -15 0
-319 318 15 0
319 -318 15 0
319 318 -15 0
-320 -319 -20 0
-320 319 20 0
320 -319 20 0
320 319 -20 0
-321 -320 -31 0
-321 320 31 0
321 -320 31 0
321 320 -31 0
-322 -321 -39 0
-322 321 39 0
322 -321 39 0
322 321 -39 0
-323 -322 -43 0
-323 322 43 0
323 -322 43 0
323 322 -43 0
-324 -323 -50 0
-324 323 50 0
324 -323 50 0
324 323 -50 0
-325 -9 -15 0
-325 9 15 0
325 -9 15 0
325 9 -15 0
-326 -325 -16 0
-326 325 16 0
326 -325 16 0
326 325 -16 0
-327 -326 -19 0
-327 326 19 0
327 -326 19 0
327 326 -19 0
-328 -327 -32 0
-328 327 32 0
328 -327 32 0
328 327 -32 0
-329 -328 -40 0
-329 328 40 0
329 -328 40 0
329 328 -40 0
-330 -329 -44 0
-330 329 44 0
330 -329 44 0
330 329 -44 0
-331 -330 -51 0
-331 330 51 0
331 -330 51 0
331 330 -51 0
-332 -1 -2 0
-332 1 2 0
332 -1 2 0
332 1 -2 0
-333 -332 -3 0
-333 332 3 0
333 -332 3 0
333 332 -3 0
-334 -333 -9 0
-334 333 9 0
334 -333 9 0
334 333 -9 0
-335 -334 -20 0
-335 334 20 0
335 -334 20 0
335 334 -20 0
-336 -335 -26 0
-336 335 26 0
336 -335 26 0
336 335 -26 0
-337 -336 -38 0
-337 336 38 0
337 -336 38 0
337 336 -38 0
-338 -337 -43 0
-338 337 43 0
338 -337 43 0
338 337 -43 0
-339 -338 -44 0
-339 338 44 0
339 -338 44 0
339 338 -44 0
-340 -339 -52 0
-340 339 52 0
340 -339 52 0
340 339 -52 0
257 262 267 272 277 282 295 302 313 324 331 340 0
-1 341 0
-341 342 0
-2 -341 343 0
-343 344 0
-3 -343 345 0
-345 346 0
-4 -345 0
-2 342 0
-342 347 0
-3 -342 344 0
-344 348 0
-4 -344 346 0
-346 349 0
-5 -346 0
-3 347 0
-347 350 0
-4 -347 348 0
-348 351 0
-5 -348 349 0
-349 352 0
-6 -349 0
-4 350 0
-350 353 0
-5 -350 351 0
-351 354 0
-6 -351 352 0
-352 355 0
-7 -352 0
-5 353 0
-353 356 0
-6 -353 354 0
-354 357 0
-7 -354 355 0
-355 358 0
-8 -355 0
-6 356 0
-356 359 0
-7 -356 357 0
-357 360 0
-8 -357 358 0
-358 361 0
-9 -358 0
-7 359 0
-359 362 0
-8 -359 360 0
-360 363 0
-9 -360 361 0
-361 364 0
-10 -361 0
-8 362 0
-362 365 0
-9 -362 363 0
-363 366 0
-10 -363 364 0
-364 367 0
-11 -364 0
-9 365 0
-365 368 0
-10 -365 366 0
-366 369 0
-11 -366 367 0
-367 370 0
-12 -367 0
-10 368 0
-368 371 0
-11 -368 369 0
-369 372 0
-12 -369 370 0
-370 373 0
-13 -370 0
-11 371 0
-371 374 0
-12 -371 372 0
-372 375 0
-13 -372 373 0
-373 376 0
-14 -373 0
-12 374 0
-374 377 0
-13 -374 375 0
-375 378 0
-14 -375 376 0
-376 379 0
-15 -376 0
-13 377 0
-377 380 0
-14 -377 378 0
-378 381 0
-15 -378 379 0
-379 382 0
-16 -379 0
-14 380 0
-380 383 0
-15 -380 381 0
-381 384 0
-16 -381 382 0
-382 385 0
-17 -382 0
-15 383 0
-383 386 0
-16 -383 384 0
-384 387 0
-17 -384 385 0
-385 388 0
-18 -385 0
-16 386 0
-386 389 0
-17 -386 387 0
-387 390 0
-18 -387 388 0
-388 391 0
-19 -388 0
-17 389 0
-389 392 0
-18 -389 390 0
-390 393 0
-19 -390 391 0
-391 394 0
-20 -391 0
-18 392 0
-392 395 0
-19 -392 393 0
-393 396 0
-20 -393 394 0
-394 397 0
-21 -394 0
-19 395 0
-395 398 0
-20 -395 396 0
-396 399 0
-21 -396 397 0
-397 400 0
-22 -397 0
-20 398 0
-398 401 0
-21 -398 399 0
-399 402 0
-22 -399 400 0
-400 403 0
-23 -400 0
-21 401 0
-401 404 0
-22 -401 402 0
-402 405 0
-23 -402 403 0
-403 406 0
-24 -403 0
-22 404 0
-404 407 0
-23 -404 405 0
-405 408 0
-24 -405 406 0
-406 409 0
-25 -406 0
-23 407 0
-407 410 0
-24 -407 408 0
-408 411 0
-25 -408 409 0
-409 412 0
-26 -409 0
-24 410 0
-410 413 0
-25 -410 411 0
-411 414 0
-26 -411 412 0
-412 415 0
-27 -412 0
-25 413 0
-413 416 0
-26 -413 414 0
-414 417 0
-27 -414 415 0
-415 418 0
-28 -415 0
-26 416 0
-416 419 0
-27 -416 417 0
-417 420 0
-28 -417 418 0
-418 421 0
-29 -418 0
-27 419 0
-419 422 0
-28 -419 420 0
-420 423 0
-29 -420 421 0
-421 424 0
-30 -421 0
-28 422 0
-422 425 0
-29 -422 423 0
-423 426 0
-30 -423 424 0
-424 427 0
-31 -424 0
-29 425 0
-425 428 0
-30 -425 426 0
-426 429 0
-31 -426 427 0
-427 430 0
-32 -427 0
-30 428 0
-428 431 0
-31 -428 429 0
-429 432 0
-32 -429 430 0
-430 433 0
-33 -430 0
-31 431 0
-431 434 0
-32 -431 432 0
-432 435 0
-33 -432 433 0
-433 436 0
-34 -433 0
-32 434 0
-434 437 0
-33 -434 435 0
-435 438 0
-34 -435 436 0
-436 439 0
-35 -436 0
-33 437 0
-437 440 0
-34 -437 438 0
-438 441 0
-35 -438 439 0
-439 442 0
-36 -439 0
-34 440 0
-440 443 0
-35 -440 441 0
-441 444 0
-36 -441 442 0
-442 445 0
-37 -442 0
-35 443 0
-443 446 0
-36 -443 444 0
-444 447 0
-37 -444 445 0
-445 448 0
-38 -445 0
-36 446 0
-446 449 0
-37 -446 447 0
-447 450 0
-38 -447 448 0
-448 451 0
-39 -448 0
-37 449 0
-449 452 0
-38 -449 450 0
-450 453 0
-39 -450 451 0
-451 454 0
-40 -451 0
-38 452 0
-452 455 0
-39 -452 453 0
-453 456 0
-40 -453 454 0
-454 457 0
-41 -454 0
-39 455 0
-455 458 0
-40 -455 456 0
-456 459 0
-41 -456 457 0
-457 460 0
-42 -457 0
-40 458 0
-458 461 0
-41 -458 459 0
-459 462 0
-42 -459 460 0
-460 463 0
-43 -460 0
-41 461 0
-461 464 0
-42 -461 462 0
-462 465 0
-43 -462 463 0
-463 466 0
-44 -463 0
-42 464 0
-464 467 0
-43 -464 465 0
-465 468 0
-44 -465 466 0
-466 469 0
-45 -466 0
-43 467 0
-467 470 0
-44 -467 468 0
-468 471 0
-45 -468 469 0
-469 472 0
-46 -469 0
-44 470 0
-470 473 0
-45 -470 471 0
-471 474 0
-46 -471 472 0
-472 475 0
-47 -472 0
-45 473 0
-473 476 0
-46 -473 474 0
-474 477 0
-47 -474 475 0
-475 478 0
-48 -475 0
-46 476 0
-476 479 0
-47 -476 477 0
-477 480 0
-48 -477 478 0
-478 481 0
-49 -478 0
-47 479 0
-479 482 0
-48 -479 480 0
-480 483 0
-49 -480 481 0
-481 484 0
-50 -481 0
-48 482 0
-482 485 0
-49 -482 483 0
-483 486 0
-50 -483 484 0
-484 487 0
-51 -484 0
-49 485 0
-485 488 0
-50 -485 486 0
-486 489 0
-51 -486 487 0
-487 490 0
-52 -487 0
-50 488 0
-488 491 0
-51 -488 489 0
-489 492 0
-52 -489 490 0
-490 493 0
-53 -490 0
-51 491 0
-491 494 0
-52 -491 492 0
-492 495 0
-53 -492 493 0
-493 496 0
-54 -493 0
-52 494 0
-494 497 0
-53 -494 495 0
-495 498 0
-54 -495 496 0
-496 499 0
-55 -496 0
-53 497 0
-497 500 0
-54 -497 498 0
-498 501 0
-55 -498 499 0
-499 502 0
-56 -499 0
-54 500 0
-500 503 0
-55 -500 501 0
-501 504 0
-56 -501 502 0
-502 505 0
-57 -502 0
-55 503 0
-503 506 0
-56 -503 504 0
-504 507 0
-57 -504 505 0
-505 508 0
-58 -505 0
-56 506 0
-506 509 0
-57 -506 507 0
-507 510 0
-58 -507 508 0
-508 511 0
-59 -508 0
-57 509 0
-509 512 0
-58 -509 510 0
-510 513 0
-59 -510 511 0
-511 514 0
-60 -511 0
-58 512 0
-512 515 0
-59 -512 513 0
-513 516 0
-60 -513 514 0
-514 517 0
-61 -514 0
-59 515 0
-515 518 0
-60 -515 516 0
-516 519 0
-61 -516 517 0
-517 520 0
-62 -517 0
-60 518 0
-518 521 0
-61 -518 519 0
-519 522 0
-62 -519 520 0
-520 523 0
-63 -520 0
-61 521 0
-521 524 0
-62 -521 522 0
-522 525 0
-63 -522 523 0
-523 526 0
-64 -523 0
-62 524 0
-524 527 0
-63 -524 525 0
-525 528 0
-64 -525 526 0
-526 529 0
-65 -526 0
-63 527 0
-527 530 0
-64 -527 528 0
-528 531 0
-65 -528 529 0
-529 532 0
-66 -529 0
-64 530 0
-530 533 0
-65 -530 531 0
-531 534 0
-66 -531 532 0
-532 535 0
-67 -532 0
-65 533 0
-533 536 0
-66 -533 534 0
-534 537 0
-67 -534 535 0
-535 538 0
-68 -535 0
-66 536 0
-536 539 0
-67 -536 537 0
-537 540 0
-68 -537 538 0
-538 541 0
-69 -538 0
-67 539 0
-539 542 0
-68 -539 540 0
-540 543 0
-69 -540 541 0
-541 544 0
-70 -541 0
-68 542 0
-542 545 0
-69 -542 543 0
-543 546 0
-70 -543 544 0
-544 547 0
-71 -544 0
-69 545 0
-70 -545 546 0
-71 -546 547 0
-72 -547 0
